####################################################################### 
# 
# This file contains crystal structure data downloaded from the 
# Cambridge Structural Database (CSD) hosted by the Cambridge 
# Crystallographic Data Centre (CCDC).
# 
# Full information about CCDC data access policies and citation 
# guidelines are available at http://www.ccdc.cam.ac.uk/access/V1 
# 
# Audit and citation data items may have been added by the CCDC. 
# Please retain this information to preserve the provenance of 
# this file and to allow appropriate attribution of the data. 
# 
#######################################################################

data_1
_audit_block_doi                 10.5517/ccdc.csd.cc1pt1l4
_database_code_depnum_ccdc_archive 'CCDC 1573206'
loop_
_citation_id
_citation_doi
_citation_year
1 10.1016/j.poly.2018.09.066 2019
_audit_update_record             
;
2017-09-07 deposited with the CCDC.	2026-01-30 downloaded from the CCDC.
;

_audit_creation_method           SHELXL-97
_chemical_name_systematic        
; 
 ? 
;
_chemical_name_common            ?
_chemical_melting_point          ?
_chemical_formula_moiety         ?
_chemical_formula_sum            'C40 H27 N O13 Tb2'
_chemical_formula_weight         1047.47

loop_
_atom_type_symbol
_atom_type_description
_atom_type_scat_dispersion_real
_atom_type_scat_dispersion_imag
_atom_type_scat_source
C C 0.0033 0.0016 'International Tables Vol C Tables 4.2.6.8 and 6.1.1.4'
H H 0.0000 0.0000 'International Tables Vol C Tables 4.2.6.8 and 6.1.1.4'
N N 0.0061 0.0033 'International Tables Vol C Tables 4.2.6.8 and 6.1.1.4'
O O 0.0106 0.0060 'International Tables Vol C Tables 4.2.6.8 and 6.1.1.4'
Tb Tb -0.1723 4.1537 'International Tables Vol C Tables 4.2.6.8 and 6.1.1.4'

_symmetry_cell_setting           Monoclinic
_symmetry_space_group_name_H-M   'P2(1)/n  '

loop_
_symmetry_equiv_pos_as_xyz
'x, y, z'
'-x+1/2, y+1/2, -z+1/2'
'-x, -y, -z'
'x-1/2, -y-1/2, z-1/2'

_cell_length_a                   11.143(2)
_cell_length_b                   20.319(4)
_cell_length_c                   16.468(3)
_cell_angle_alpha                90.00
_cell_angle_beta                 108.29(3)
_cell_angle_gamma                90.00
_cell_volume                     3540.5(12)
_cell_formula_units_Z            4
_cell_measurement_temperature    293(2)
_cell_measurement_reflns_used    9840
_cell_measurement_theta_min      2.79
_cell_measurement_theta_max      28.28

_exptl_crystal_description       BLOCK
_exptl_crystal_colour            YELLOW
_exptl_crystal_size_max          0.20
_exptl_crystal_size_mid          0.20
_exptl_crystal_size_min          0.20
_exptl_crystal_density_meas      'not measured'
_exptl_crystal_density_diffrn    1.965
_exptl_crystal_density_method    'not measured'
_exptl_crystal_F_000             2032
_exptl_absorpt_coefficient_mu    4.035
_exptl_absorpt_correction_type   NONE
_exptl_absorpt_correction_T_min  ?
_exptl_absorpt_correction_T_max  ?
_exptl_absorpt_process_details   ?

_exptl_special_details           
; 
 ? 
;

_diffrn_ambient_temperature      293(2)
_diffrn_radiation_wavelength     0.71073
_diffrn_radiation_type           MoK\a
_diffrn_radiation_source         'fine-focus sealed tube'
_diffrn_radiation_monochromator  graphite
_diffrn_measurement_device_type  'Bruker APEX-II CCD'
_diffrn_measurement_method       '\f and \w scans'
_diffrn_detector_area_resol_mean ?
_diffrn_standards_number         0
_diffrn_standards_interval_count 0
_diffrn_standards_interval_time  0
_diffrn_standards_decay_%        0
_diffrn_reflns_number            30589
_diffrn_reflns_av_R_equivalents  0.0401
_diffrn_reflns_av_sigmaI/netI    0.0370
_diffrn_reflns_limit_h_min       -14
_diffrn_reflns_limit_h_max       14
_diffrn_reflns_limit_k_min       -25
_diffrn_reflns_limit_k_max       26
_diffrn_reflns_limit_l_min       -21
_diffrn_reflns_limit_l_max       21
_diffrn_reflns_theta_min         2.39
_diffrn_reflns_theta_max         28.28
_reflns_number_total             8741
_reflns_number_gt                7689
_reflns_threshold_expression     I>2sigma(I)

_computing_data_collection       'Bruker APEX2'
_computing_cell_refinement       'Bruker SAINT'
_computing_data_reduction        'Bruker SAINT'
_computing_structure_solution    'SHELXS-97 (Sheldrick, 1990)'
_computing_structure_refinement  'SHELXL-97 (Sheldrick, 1997)'
_computing_molecular_graphics    'Bruker SHELXTL'
_computing_publication_material  'Bruker SHELXTL'

_refine_special_details          
; 
 Refinement of F^2^ against ALL reflections.  The weighted R-factor wR and 
 goodness of fit S are based on F^2^, conventional R-factors R are based 
 on F, with F set to zero for negative F^2^. The threshold expression of 
 F^2^ > 2sigma(F^2^) is used only for calculating R-factors(gt) etc. and is 
 not relevant to the choice of reflections for refinement.  R-factors based 
 on F^2^ are statistically about twice as large as those based on F, and R- 
 factors based on ALL data will be even larger. 
;

_refine_ls_structure_factor_coef Fsqd
_refine_ls_matrix_type           full
_refine_ls_weighting_scheme      calc
_refine_ls_weighting_details     
'calc w=1/[\s^2^(Fo^2^)+(0.0266P)^2^+11.3909P] where P=(Fo^2^+2Fc^2^)/3'
_atom_sites_solution_primary     direct
_atom_sites_solution_secondary   difmap
_atom_sites_solution_hydrogens   geom
_refine_ls_hydrogen_treatment    CONSTR
_refine_ls_extinction_method     none
_refine_ls_extinction_coef       ?
_refine_ls_number_reflns         8741
_refine_ls_number_parameters     508
_refine_ls_number_restraints     0
_refine_ls_R_factor_all          0.0397
_refine_ls_R_factor_gt           0.0331
_refine_ls_wR_factor_ref         0.0801
_refine_ls_wR_factor_gt          0.0769
_refine_ls_goodness_of_fit_ref   1.080
_refine_ls_restrained_S_all      1.080
_refine_ls_shift/su_max          0.001
_refine_ls_shift/su_mean         0.000

loop_
_atom_site_label
_atom_site_type_symbol
_atom_site_fract_x
_atom_site_fract_y
_atom_site_fract_z
_atom_site_U_iso_or_equiv
_atom_site_adp_type
_atom_site_occupancy
_atom_site_symmetry_multiplicity
_atom_site_calc_flag
_atom_site_refinement_flags
_atom_site_disorder_assembly
_atom_site_disorder_group
Tb1 Tb -0.007107(16) 0.758384(9) 0.002289(12) 0.01820(6) Uani 1 1 d . . .
Tb2 Tb 0.273252(18) 0.732790(9) 0.231353(12) 0.01925(6) Uani 1 1 d . . .
O1 O -0.0597(6) 0.6614(2) 0.0549(4) 0.0796(16) Uani 1 1 d . . .
O2 O 0.1329(5) 0.6620(2) 0.1350(3) 0.0769(17) Uani 1 1 d . . .
O3 O 0.2010(3) 0.75255(17) 0.0009(2) 0.0319(7) Uani 1 1 d . . .
O4 O 0.3558(3) 0.72928(17) 0.1207(2) 0.0318(7) Uani 1 1 d . . .
O5 O 0.1283(3) 0.81018(15) 0.12717(18) 0.0260(6) Uani 1 1 d . . .
O6 O 0.1308(4) 0.81540(17) 0.2599(2) 0.0420(9) Uani 1 1 d . . .
O7 O 0.1599(3) 0.67399(17) 0.3055(2) 0.0379(8) Uani 1 1 d . . .
O8 O 0.2893(3) 0.73919(16) 0.3975(2) 0.0293(7) Uani 1 1 d . . .
O9 O 0.3924(3) 0.82915(17) 0.2601(2) 0.0424(9) Uani 1 1 d . . .
O10 O 0.4960(3) 0.81246(17) 0.3955(2) 0.0421(9) Uani 1 1 d . . .
O11 O 0.4301(3) 0.65873(15) 0.2910(2) 0.0333(7) Uani 1 1 d . . .
O12 O 0.4968(3) 0.64395(15) 0.4315(2) 0.0327(7) Uani 1 1 d . . .
O13 O -0.1350(3) 0.79801(19) 0.0802(2) 0.0404(8) Uani 1 1 d . . .
N1 N -0.2465(6) 0.7922(6) 0.1684(5) 0.115(4) Uani 1 1 d . . .
C1 C 0.0320(6) 0.6320(2) 0.1038(4) 0.0431(13) Uani 1 1 d . . .
C2 C 0.1146(5) 0.5312(3) 0.1867(4) 0.0494(14) Uani 1 1 d . . .
H2 H 0.1806 0.5571 0.2200 0.059 Uiso 1 1 calc R . .
C3 C 0.0222(5) 0.5599(2) 0.1230(3) 0.0345(10) Uani 1 1 d . . .
C4 C -0.0814(4) 0.5198(2) 0.0715(3) 0.0307(9) Uani 1 1 d . . .
C5 C -0.1838(6) 0.5441(3) 0.0036(4) 0.0517(15) Uani 1 1 d . . .
H5 H -0.1866 0.5887 -0.0095 0.062 Uiso 1 1 calc R . .
C6 C 0.3141(4) 0.7469(2) 0.0440(3) 0.0232(8) Uani 1 1 d . . .
C7 C 0.5927(4) 0.7276(2) -0.0386(3) 0.0285(9) Uani 1 1 d . . .
H7 H 0.6539 0.6960 -0.0369 0.034 Uiso 1 1 calc R . .
C8 C 0.5010(4) 0.7153(2) 0.0021(3) 0.0310(10) Uani 1 1 d . . .
H8 H 0.5015 0.6755 0.0301 0.037 Uiso 1 1 calc R . .
C9 C 0.4113(4) 0.7617(2) 0.0006(3) 0.0239(8) Uani 1 1 d . . .
C10 C 0.4097(4) 0.8231(2) -0.0405(3) 0.0253(8) Uani 1 1 d . . .
C11 C 0.3241(5) 0.8734(3) -0.0381(4) 0.0450(13) Uani 1 1 d . . .
H11 H 0.2638 0.8656 -0.0110 0.054 Uiso 1 1 calc R . .
C12 C 0.3277(6) 0.9331(3) -0.0746(5) 0.065(2) Uani 1 1 d . . .
H12 H 0.2708 0.9658 -0.0715 0.078 Uiso 1 1 calc R . .
C13 C 0.1084(4) 0.8423(2) 0.1889(3) 0.0243(8) Uani 1 1 d . . .
C14 C 0.1021(4) 0.9454(2) 0.1130(3) 0.0284(9) Uani 1 1 d . . .
H14 H 0.1347 0.9219 0.0762 0.034 Uiso 1 1 calc R . .
C15 C 0.0708(4) 0.91268(19) 0.1761(3) 0.0217(8) Uani 1 1 d . . .
C16 C 0.0128(4) 0.94767(19) 0.2293(3) 0.0214(8) Uani 1 1 d . . .
C17 C -0.0347(4) 0.9158(2) 0.2892(3) 0.0303(9) Uani 1 1 d . . .
H17 H -0.0232 0.8707 0.2976 0.036 Uiso 1 1 calc R . .
C18 C -0.0968(5) 0.9500(3) 0.3346(3) 0.0392(11) Uani 1 1 d . . .
H18 H -0.1290 0.9280 0.3727 0.047 Uiso 1 1 calc R . .
C19 C 0.1861(4) 0.7072(2) 0.3728(3) 0.0224(8) Uani 1 1 d . . .
C20 C 0.0921(4) 0.7145(2) 0.4196(3) 0.0226(8) Uani 1 1 d . . .
C21 C 0.0021(4) 0.6645(2) 0.4173(3) 0.0245(8) Uani 1 1 d . . .
C22 C 0.0009(5) 0.6017(2) 0.3791(4) 0.0396(12) Uani 1 1 d . . .
H22 H 0.0591 0.5926 0.3507 0.047 Uiso 1 1 calc R . .
C23 C -0.0835(6) 0.5544(3) 0.3833(5) 0.0593(18) Uani 1 1 d . . .
H23 H -0.0821 0.5136 0.3581 0.071 Uiso 1 1 calc R . .
C24 C 0.4553(4) 0.8493(2) 0.3329(3) 0.0264(9) Uani 1 1 d . . .
C25 C 0.3855(5) 0.9636(3) 0.2956(4) 0.0445(13) Uani 1 1 d . . .
H25 H 0.3220 0.9462 0.2495 0.053 Uiso 1 1 calc R . .
C26 C 0.4774(4) 0.9225(2) 0.3452(3) 0.0285(9) Uani 1 1 d . . .
C27 C 0.5800(4) 0.9504(2) 0.4111(3) 0.0257(9) Uani 1 1 d . . .
C28 C 0.6832(4) 0.9115(2) 0.4596(3) 0.0344(10) Uani 1 1 d . . .
H28 H 0.6849 0.8670 0.4471 0.041 Uiso 1 1 calc R . .
C29 C 0.7799(5) 0.9376(3) 0.5239(4) 0.0490(14) Uani 1 1 d . . .
H29 H 0.8467 0.9111 0.5549 0.059 Uiso 1 1 calc R . .
C30 C 0.7781(6) 1.0045(3) 0.5430(4) 0.0599(18) Uani 1 1 d . . .
H30 H 0.8425 1.0221 0.5883 0.072 Uiso 1 1 calc R . .
C31 C 0.4647(4) 0.6228(2) 0.3564(3) 0.0251(8) Uani 1 1 d . . .
C32 C 0.4142(4) 0.5137(2) 0.3971(3) 0.0282(9) Uani 1 1 d . . .
H32 H 0.3920 0.5347 0.4405 0.034 Uiso 1 1 calc R . .
C33 C 0.4617(4) 0.54958(19) 0.3447(3) 0.0226(8) Uani 1 1 d . . .
C34 C 0.5036(4) 0.51723(19) 0.2813(3) 0.0225(8) Uani 1 1 d . . .
C35 C 0.5666(5) 0.5513(2) 0.2313(3) 0.0353(11) Uani 1 1 d . . .
H35 H 0.5764 0.5967 0.2367 0.042 Uiso 1 1 calc R . .
C36 C 0.6129(5) 0.5186(3) 0.1757(4) 0.0442(13) Uani 1 1 d . . .
H36 H 0.6553 0.5415 0.1442 0.053 Uiso 1 1 calc R . .
C37 C -0.2693(6) 0.8901(4) 0.0930(5) 0.066(2) Uani 1 1 d . . .
H37A H -0.3599 0.8872 0.0743 0.100 Uiso 1 1 calc R . .
H37B H -0.2420 0.9084 0.0480 0.100 Uiso 1 1 calc R . .
H37C H -0.2417 0.9179 0.1425 0.100 Uiso 1 1 calc R . .
C38 C -0.2090(5) 0.8169(5) 0.1169(4) 0.075(3) Uani 1 1 d . . .
C39 C -0.1859(9) 0.7216(5) 0.1925(6) 0.087(3) Uani 1 1 d . . .
H39A H -0.1684 0.7028 0.1438 0.131 Uiso 1 1 calc R . .
H39B H -0.2438 0.6937 0.2090 0.131 Uiso 1 1 calc R . .
H39C H -0.1087 0.7253 0.2391 0.131 Uiso 1 1 calc R . .
C40 C -0.3385(8) 0.8150(6) 0.2103(6) 0.106(4) Uani 1 1 d . . .
H40A H -0.3662 0.8586 0.1910 0.160 Uiso 1 1 calc R . .
H40B H -0.2991 0.8153 0.2712 0.160 Uiso 1 1 calc R . .
H40C H -0.4098 0.7858 0.1959 0.160 Uiso 1 1 calc R . .

loop_
_atom_site_aniso_label
_atom_site_aniso_U_11
_atom_site_aniso_U_22
_atom_site_aniso_U_33
_atom_site_aniso_U_23
_atom_site_aniso_U_13
_atom_site_aniso_U_12
Tb1 0.01630(9) 0.01390(9) 0.02417(10) 0.00020(7) 0.00605(7) -0.00017(6)
Tb2 0.02385(10) 0.01387(9) 0.02259(10) 0.00062(7) 0.01098(7) -0.00080(6)
O1 0.115(4) 0.032(2) 0.096(4) 0.029(3) 0.040(3) 0.008(3)
O2 0.111(4) 0.069(3) 0.075(3) -0.045(3) 0.063(3) -0.067(3)
O3 0.0193(14) 0.0409(18) 0.0371(18) -0.0058(14) 0.0113(13) -0.0077(13)
O4 0.0267(16) 0.0430(19) 0.0302(17) 0.0018(14) 0.0154(13) -0.0006(13)
O5 0.0256(15) 0.0233(15) 0.0273(15) -0.0042(12) 0.0057(12) 0.0044(11)
O6 0.067(2) 0.0303(18) 0.0373(19) 0.0130(15) 0.0284(18) 0.0215(16)
O7 0.046(2) 0.0368(19) 0.0404(19) -0.0111(15) 0.0271(16) -0.0146(15)
O8 0.0164(13) 0.0382(18) 0.0355(17) 0.0021(14) 0.0112(12) -0.0005(12)
O9 0.051(2) 0.0289(18) 0.044(2) -0.0093(15) 0.0105(17) -0.0194(15)
O10 0.0348(18) 0.0301(18) 0.057(2) 0.0189(17) 0.0082(16) -0.0022(14)
O11 0.0414(18) 0.0213(16) 0.0415(19) 0.0084(14) 0.0193(15) 0.0094(13)
O12 0.0368(17) 0.0199(15) 0.0370(18) -0.0074(13) 0.0050(14) 0.0021(12)
O13 0.0298(17) 0.052(2) 0.045(2) -0.0053(17) 0.0190(15) -0.0006(15)
N1 0.053(4) 0.233(11) 0.074(5) -0.077(6) 0.041(4) -0.060(5)
C1 0.075(4) 0.022(2) 0.047(3) -0.009(2) 0.040(3) -0.017(2)
C2 0.042(3) 0.036(3) 0.061(4) -0.017(3) 0.003(3) -0.013(2)
C3 0.038(3) 0.024(2) 0.048(3) 0.002(2) 0.022(2) -0.0015(18)
C4 0.034(2) 0.022(2) 0.039(3) 0.0041(18) 0.016(2) 0.0031(17)
C5 0.061(4) 0.031(3) 0.054(3) 0.013(3) 0.005(3) 0.013(2)
C6 0.0225(19) 0.023(2) 0.028(2) -0.0054(16) 0.0139(16) -0.0052(15)
C7 0.022(2) 0.029(2) 0.037(2) 0.0032(18) 0.0126(18) 0.0068(16)
C8 0.027(2) 0.031(2) 0.039(3) 0.0096(19) 0.0160(19) 0.0033(17)
C9 0.0183(18) 0.030(2) 0.027(2) -0.0012(17) 0.0113(16) -0.0038(15)
C10 0.0184(18) 0.028(2) 0.032(2) -0.0031(17) 0.0128(17) -0.0010(15)
C11 0.035(3) 0.034(3) 0.078(4) 0.001(3) 0.036(3) 0.005(2)
C12 0.057(4) 0.037(3) 0.122(6) 0.017(4) 0.056(4) 0.022(3)
C13 0.0226(19) 0.020(2) 0.029(2) 0.0002(16) 0.0056(17) 0.0018(15)
C14 0.038(2) 0.022(2) 0.028(2) -0.0017(17) 0.0143(19) 0.0036(17)
C15 0.0221(19) 0.0177(19) 0.0235(19) 0.0008(15) 0.0046(15) 0.0019(14)
C16 0.0203(18) 0.0173(19) 0.025(2) 0.0007(15) 0.0047(15) -0.0013(14)
C17 0.032(2) 0.026(2) 0.035(2) 0.0048(18) 0.0140(19) -0.0028(17)
C18 0.043(3) 0.039(3) 0.043(3) 0.007(2) 0.024(2) -0.003(2)
C19 0.0225(19) 0.022(2) 0.026(2) 0.0046(16) 0.0123(16) 0.0028(15)
C20 0.0184(18) 0.026(2) 0.025(2) 0.0017(16) 0.0092(15) 0.0021(15)
C21 0.0197(19) 0.029(2) 0.027(2) -0.0013(17) 0.0102(16) -0.0017(15)
C22 0.040(3) 0.031(2) 0.059(3) -0.014(2) 0.031(3) -0.006(2)
C23 0.062(4) 0.035(3) 0.099(5) -0.027(3) 0.051(4) -0.018(3)
C24 0.024(2) 0.021(2) 0.034(2) 0.0018(17) 0.0088(18) -0.0077(15)
C25 0.040(3) 0.033(3) 0.047(3) 0.004(2) -0.004(2) -0.006(2)
C26 0.028(2) 0.023(2) 0.033(2) 0.0001(17) 0.0067(18) -0.0030(16)
C27 0.025(2) 0.022(2) 0.032(2) -0.0014(17) 0.0108(17) -0.0011(15)
C28 0.028(2) 0.028(2) 0.046(3) 0.002(2) 0.010(2) 0.0014(17)
C29 0.032(3) 0.058(4) 0.049(3) 0.002(3) 0.001(2) -0.001(2)
C30 0.049(3) 0.057(4) 0.056(4) -0.015(3) -0.010(3) -0.012(3)
C31 0.0233(19) 0.0180(19) 0.034(2) -0.0014(17) 0.0096(17) 0.0020(15)
C32 0.039(2) 0.021(2) 0.028(2) -0.0039(17) 0.0150(19) 0.0004(17)
C33 0.0238(19) 0.0169(19) 0.025(2) -0.0021(15) 0.0053(16) -0.0004(14)
C34 0.0227(19) 0.0171(18) 0.027(2) 0.0001(15) 0.0063(16) -0.0018(14)
C35 0.039(3) 0.026(2) 0.047(3) 0.000(2) 0.022(2) -0.0049(19)
C36 0.051(3) 0.039(3) 0.055(3) 0.003(2) 0.035(3) -0.005(2)
C37 0.047(4) 0.070(5) 0.070(4) -0.025(4) 0.000(3) 0.011(3)
C38 0.027(3) 0.151(8) 0.052(4) -0.054(4) 0.019(3) -0.022(4)
C39 0.092(6) 0.088(6) 0.085(6) 0.028(5) 0.035(5) -0.003(5)
C40 0.068(5) 0.179(11) 0.100(7) -0.058(7) 0.067(5) -0.032(6)

_geom_special_details            
; 
 All esds (except the esd in the dihedral angle between two l.s. planes) 
 are estimated using the full covariance matrix.  The cell esds are taken 
 into account individually in the estimation of esds in distances, angles 
 and torsion angles; correlations between esds in cell parameters are only 
 used when they are defined by crystal symmetry.  An approximate (isotropic) 
 treatment of cell esds is used for estimating esds involving l.s. planes. 
;

loop_
_geom_bond_atom_site_label_1
_geom_bond_atom_site_label_2
_geom_bond_distance
_geom_bond_site_symmetry_2
_geom_bond_publ_flag
Tb1 O10 2.281(3) 4_575 ?
Tb1 O1 2.301(4) . ?
Tb1 O12 2.309(3) 4_575 ?
Tb1 O3 2.329(3) . ?
Tb1 O13 2.339(3) . ?
Tb1 O5 2.381(3) . ?
Tb1 O8 2.382(3) 4_575 ?
Tb1 C1 3.020(5) . ?
Tb2 O11 2.282(3) . ?
Tb2 O4 2.286(3) . ?
Tb2 O9 2.329(3) . ?
Tb2 O2 2.340(4) . ?
Tb2 O7 2.342(3) . ?
Tb2 O6 2.454(3) . ?
Tb2 O5 2.507(3) . ?
Tb2 O8 2.689(3) . ?
Tb2 C13 2.830(4) . ?
Tb2 C19 2.839(4) . ?
O1 C1 1.238(8) . ?
O2 C1 1.240(7) . ?
O3 C6 1.243(5) . ?
O4 C6 1.252(5) . ?
O5 C13 1.285(5) . ?
O6 C13 1.242(5) . ?
O7 C19 1.251(5) . ?
O8 C19 1.271(5) . ?
O8 Tb1 2.382(3) 4_676 ?
O9 C24 1.253(5) . ?
O10 C24 1.239(5) . ?
O10 Tb1 2.281(3) 4_676 ?
O11 C31 1.257(5) . ?
O12 C31 1.251(5) . ?
O12 Tb1 2.309(3) 4_676 ?
O13 C38 1.227(7) . ?
N1 C38 1.171(11) . ?
N1 C40 1.478(9) . ?
N1 C39 1.583(13) . ?
C1 C3 1.510(6) . ?
C2 C3 1.349(8) . ?
C2 C25 1.405(8) 2_545 ?
C2 H2 0.9300 . ?
C3 C4 1.450(7) . ?
C4 C5 1.413(7) . ?
C4 C27 1.438(6) 2_545 ?
C5 C30 1.354(9) 2_545 ?
C5 H5 0.9300 . ?
C6 C9 1.503(5) . ?
C7 C20 1.363(6) 4_675 ?
C7 C8 1.409(6) . ?
C7 H7 0.9300 . ?
C8 C9 1.369(6) . ?
C8 H8 0.9300 . ?
C9 C10 1.417(6) . ?
C10 C11 1.405(6) . ?
C10 C21 1.434(5) 4_675 ?
C11 C12 1.361(8) . ?
C11 H11 0.9300 . ?
C12 C23 1.398(8) 4_675 ?
C12 H12 0.9300 . ?
C13 C15 1.487(5) . ?
C14 C15 1.368(6) . ?
C14 C32 1.403(6) 2 ?
C14 H14 0.9300 . ?
C15 C16 1.429(6) . ?
C16 C17 1.414(6) . ?
C16 C34 1.429(5) 2 ?
C17 C18 1.360(7) . ?
C17 H17 0.9300 . ?
C18 C36 1.407(7) 2 ?
C18 H18 0.9300 . ?
C19 C20 1.489(5) . ?
C20 C7 1.363(6) 4_576 ?
C20 C21 1.419(6) . ?
C21 C22 1.422(6) . ?
C21 C10 1.434(5) 4_576 ?
C22 C23 1.361(7) . ?
C22 H22 0.9300 . ?
C23 C12 1.398(8) 4_576 ?
C23 H23 0.9300 . ?
C24 C26 1.510(6) . ?
C25 C26 1.374(7) . ?
C25 C2 1.405(8) 2 ?
C25 H25 0.9300 . ?
C26 C27 1.424(6) . ?
C27 C28 1.417(6) . ?
C27 C4 1.438(6) 2 ?
C28 C29 1.359(7) . ?
C28 H28 0.9300 . ?
C29 C30 1.396(9) . ?
C29 H29 0.9300 . ?
C30 C5 1.354(9) 2 ?
C30 H30 0.9300 . ?
C31 C33 1.500(5) . ?
C32 C33 1.358(6) . ?
C32 C14 1.403(6) 2_545 ?
C32 H32 0.9300 . ?
C33 C34 1.431(6) . ?
C34 C35 1.419(6) . ?
C34 C16 1.429(5) 2_545 ?
C35 C36 1.358(7) . ?
C35 H35 0.9300 . ?
C36 C18 1.407(7) 2_545 ?
C36 H36 0.9300 . ?
C37 C38 1.629(11) . ?
C37 H37A 0.9600 . ?
C37 H37B 0.9600 . ?
C37 H37C 0.9600 . ?
C39 H39A 0.9600 . ?
C39 H39B 0.9600 . ?
C39 H39C 0.9600 . ?
C40 H40A 0.9600 . ?
C40 H40B 0.9600 . ?
C40 H40C 0.9600 . ?

loop_
_geom_angle_atom_site_label_1
_geom_angle_atom_site_label_2
_geom_angle_atom_site_label_3
_geom_angle
_geom_angle_site_symmetry_1
_geom_angle_site_symmetry_3
_geom_angle_publ_flag
O10 Tb1 O1 79.44(17) 4_575 . ?
O10 Tb1 O12 98.39(13) 4_575 4_575 ?
O1 Tb1 O12 166.76(17) . 4_575 ?
O10 Tb1 O3 72.81(12) 4_575 . ?
O1 Tb1 O3 109.38(17) . . ?
O12 Tb1 O3 82.09(12) 4_575 . ?
O10 Tb1 O13 143.04(13) 4_575 . ?
O1 Tb1 O13 79.49(17) . . ?
O12 Tb1 O13 95.29(13) 4_575 . ?
O3 Tb1 O13 143.38(12) . . ?
O10 Tb1 O5 141.82(11) 4_575 . ?
O1 Tb1 O5 102.76(17) . . ?
O12 Tb1 O5 87.08(11) 4_575 . ?
O3 Tb1 O5 70.59(11) . . ?
O13 Tb1 O5 72.80(11) . . ?
O10 Tb1 O8 72.30(12) 4_575 4_575 ?
O1 Tb1 O8 89.61(17) . 4_575 ?
O12 Tb1 O8 77.34(11) 4_575 4_575 ?
O3 Tb1 O8 135.98(11) . 4_575 ?
O13 Tb1 O8 77.54(12) . 4_575 ?
O5 Tb1 O8 144.93(10) . 4_575 ?
O10 Tb1 C1 81.71(14) 4_575 . ?
O1 Tb1 C1 22.04(18) . . ?
O12 Tb1 C1 171.11(14) 4_575 . ?
O3 Tb1 C1 89.49(14) . . ?
O13 Tb1 C1 89.76(14) . . ?
O5 Tb1 C1 87.44(13) . . ?
O8 Tb1 C1 110.96(14) 4_575 . ?
O11 Tb2 O4 82.94(12) . . ?
O11 Tb2 O9 98.98(13) . . ?
O4 Tb2 O9 80.90(13) . . ?
O11 Tb2 O2 98.34(18) . . ?
O4 Tb2 O2 77.92(13) . . ?
O9 Tb2 O2 150.64(15) . . ?
O11 Tb2 O7 84.54(12) . . ?
O4 Tb2 O7 144.88(12) . . ?
O9 Tb2 O7 133.57(12) . . ?
O2 Tb2 O7 71.63(13) . . ?
O11 Tb2 O6 145.34(12) . . ?
O4 Tb2 O6 128.32(11) . . ?
O9 Tb2 O6 75.40(14) . . ?
O2 Tb2 O6 102.45(17) . . ?
O7 Tb2 O6 76.23(12) . . ?
O11 Tb2 O5 161.83(11) . . ?
O4 Tb2 O5 78.92(11) . . ?
O9 Tb2 O5 79.36(12) . . ?
O2 Tb2 O5 76.81(17) . . ?
O7 Tb2 O5 109.87(12) . . ?
O6 Tb2 O5 52.10(10) . . ?
O11 Tb2 O8 78.26(11) . . ?
O4 Tb2 O8 153.91(10) . . ?
O9 Tb2 O8 84.33(11) . . ?
O2 Tb2 O8 122.45(12) . . ?
O7 Tb2 O8 50.81(10) . . ?
O6 Tb2 O8 67.21(10) . . ?
O5 Tb2 O8 119.27(9) . . ?
O11 Tb2 C13 167.16(12) . . ?
O4 Tb2 C13 102.71(12) . . ?
O9 Tb2 C13 70.95(13) . . ?
O2 Tb2 C13 94.14(18) . . ?
O7 Tb2 C13 96.62(13) . . ?
O6 Tb2 C13 25.96(11) . . ?
O5 Tb2 C13 27.01(11) . . ?
O8 Tb2 C13 92.52(11) . . ?
O11 Tb2 C19 86.52(11) . . ?
O4 Tb2 C19 167.28(12) . . ?
O9 Tb2 C19 107.88(13) . . ?
O2 Tb2 C19 96.66(13) . . ?
O7 Tb2 C19 25.73(11) . . ?
O6 Tb2 C19 63.88(11) . . ?
O5 Tb2 C19 111.31(11) . . ?
O8 Tb2 C19 26.41(10) . . ?
C13 Tb2 C19 89.06(12) . . ?
C1 O1 Tb1 113.7(4) . . ?
C1 O2 Tb2 155.4(4) . . ?
C6 O3 Tb1 146.4(3) . . ?
C6 O4 Tb2 132.8(3) . . ?
C13 O5 Tb1 133.5(3) . . ?
C13 O5 Tb2 90.6(2) . . ?
Tb1 O5 Tb2 114.31(12) . . ?
C13 O6 Tb2 94.1(3) . . ?
C19 O7 Tb2 99.9(3) . . ?
C19 O8 Tb1 143.4(3) . 4_676 ?
C19 O8 Tb2 83.4(2) . . ?
Tb1 O8 Tb2 118.83(12) 4_676 . ?
C24 O9 Tb2 125.5(3) . . ?
C24 O10 Tb1 158.9(3) . 4_676 ?
C31 O11 Tb2 137.6(3) . . ?
C31 O12 Tb1 138.5(3) . 4_676 ?
C38 O13 Tb1 175.6(4) . . ?
C38 N1 C40 131.4(12) . . ?
C38 N1 C39 110.4(8) . . ?
C40 N1 C39 118.1(9) . . ?
O1 C1 O2 119.3(6) . . ?
O1 C1 C3 120.4(5) . . ?
O2 C1 C3 120.3(6) . . ?
O1 C1 Tb1 44.2(3) . . ?
O2 C1 Tb1 76.5(4) . . ?
C3 C1 Tb1 159.0(4) . . ?
C3 C2 C25 122.2(5) . 2_545 ?
C3 C2 H2 118.9 . . ?
C25 C2 H2 118.9 2_545 . ?
C2 C3 C4 119.0(4) . . ?
C2 C3 C1 119.6(5) . . ?
C4 C3 C1 121.3(5) . . ?
C5 C4 C27 117.1(4) . 2_545 ?
C5 C4 C3 124.3(4) . . ?
C27 C4 C3 118.6(4) 2_545 . ?
C30 C5 C4 122.1(5) 2_545 . ?
C30 C5 H5 119.0 2_545 . ?
C4 C5 H5 119.0 . . ?
O3 C6 O4 126.3(4) . . ?
O3 C6 C9 117.5(4) . . ?
O4 C6 C9 116.2(4) . . ?
C20 C7 C8 120.3(4) 4_675 . ?
C20 C7 H7 119.9 4_675 . ?
C8 C7 H7 119.9 . . ?
C9 C8 C7 120.3(4) . . ?
C9 C8 H8 119.9 . . ?
C7 C8 H8 119.9 . . ?
C8 C9 C10 121.0(4) . . ?
C8 C9 C6 119.0(4) . . ?
C10 C9 C6 120.1(4) . . ?
C11 C10 C9 122.2(4) . . ?
C11 C10 C21 118.9(4) . 4_675 ?
C9 C10 C21 118.8(4) . 4_675 ?
C12 C11 C10 121.5(5) . . ?
C12 C11 H11 119.3 . . ?
C10 C11 H11 119.3 . . ?
C11 C12 C23 120.3(5) . 4_675 ?
C11 C12 H12 119.9 . . ?
C23 C12 H12 119.9 4_675 . ?
O6 C13 O5 119.2(4) . . ?
O6 C13 C15 121.4(4) . . ?
O5 C13 C15 119.2(4) . . ?
O6 C13 Tb2 59.9(2) . . ?
O5 C13 Tb2 62.4(2) . . ?
C15 C13 Tb2 157.5(3) . . ?
C15 C14 C32 121.1(4) . 2 ?
C15 C14 H14 119.5 . . ?
C32 C14 H14 119.5 2 . ?
C14 C15 C16 119.7(4) . . ?
C14 C15 C13 116.5(4) . . ?
C16 C15 C13 123.6(4) . . ?
C17 C16 C34 118.5(4) . 2 ?
C17 C16 C15 122.6(4) . . ?
C34 C16 C15 118.8(4) 2 . ?
C18 C17 C16 121.1(4) . . ?
C18 C17 H17 119.5 . . ?
C16 C17 H17 119.5 . . ?
C17 C18 C36 120.5(5) . 2 ?
C17 C18 H18 119.7 . . ?
C36 C18 H18 119.7 2 . ?
O7 C19 O8 119.7(4) . . ?
O7 C19 C20 120.3(4) . . ?
O8 C19 C20 119.8(4) . . ?
O7 C19 Tb2 54.3(2) . . ?
O8 C19 Tb2 70.2(2) . . ?
C20 C19 Tb2 152.0(3) . . ?
C7 C20 C21 121.5(4) 4_576 . ?
C7 C20 C19 117.0(4) 4_576 . ?
C21 C20 C19 121.4(4) . . ?
C20 C21 C22 124.2(4) . . ?
C20 C21 C10 118.1(4) . 4_576 ?
C22 C21 C10 117.6(4) . 4_576 ?
C23 C22 C21 121.5(5) . . ?
C23 C22 H22 119.3 . . ?
C21 C22 H22 119.3 . . ?
C22 C23 C12 120.4(5) . 4_576 ?
C22 C23 H23 119.8 . . ?
C12 C23 H23 119.8 4_576 . ?
O10 C24 O9 123.2(4) . . ?
O10 C24 C26 118.8(4) . . ?
O9 C24 C26 117.9(4) . . ?
C26 C25 C2 121.3(5) . 2 ?
C26 C25 H25 119.3 . . ?
C2 C25 H25 119.3 2 . ?
C25 C26 C27 118.8(4) . . ?
C25 C26 C24 117.3(4) . . ?
C27 C26 C24 123.5(4) . . ?
C28 C27 C26 121.6(4) . . ?
C28 C27 C4 118.5(4) . 2 ?
C26 C27 C4 119.8(4) . 2 ?
C29 C28 C27 121.8(5) . . ?
C29 C28 H28 119.1 . . ?
C27 C28 H28 119.1 . . ?
C28 C29 C30 119.4(5) . . ?
C28 C29 H29 120.3 . . ?
C30 C29 H29 120.3 . . ?
C5 C30 C29 121.0(5) 2 . ?
C5 C30 H30 119.5 2 . ?
C29 C30 H30 119.5 . . ?
O12 C31 O11 124.3(4) . . ?
O12 C31 C33 117.1(4) . . ?
O11 C31 C33 118.6(4) . . ?
C33 C32 C14 121.2(4) . 2_545 ?
C33 C32 H32 119.4 . . ?
C14 C32 H32 119.4 2_545 . ?
C32 C33 C34 119.9(4) . . ?
C32 C33 C31 116.7(4) . . ?
C34 C33 C31 123.4(4) . . ?
C35 C34 C16 118.6(4) . 2_545 ?
C35 C34 C33 122.3(4) . . ?
C16 C34 C33 119.0(4) 2_545 . ?
C36 C35 C34 121.0(4) . . ?
C36 C35 H35 119.5 . . ?
C34 C35 H35 119.5 . . ?
C35 C36 C18 120.3(5) . 2_545 ?
C35 C36 H36 119.8 . . ?
C18 C36 H36 119.8 2_545 . ?
C38 C37 H37A 109.5 . . ?
C38 C37 H37B 109.5 . . ?
H37A C37 H37B 109.5 . . ?
C38 C37 H37C 109.5 . . ?
H37A C37 H37C 109.5 . . ?
H37B C37 H37C 109.5 . . ?
N1 C38 O13 132.1(10) . . ?
N1 C38 C37 110.7(8) . . ?
O13 C38 C37 117.2(7) . . ?
N1 C39 H39A 109.5 . . ?
N1 C39 H39B 109.5 . . ?
H39A C39 H39B 109.5 . . ?
N1 C39 H39C 109.5 . . ?
H39A C39 H39C 109.5 . . ?
H39B C39 H39C 109.5 . . ?
N1 C40 H40A 109.5 . . ?
N1 C40 H40B 109.5 . . ?
H40A C40 H40B 109.5 . . ?
N1 C40 H40C 109.5 . . ?
H40A C40 H40C 109.5 . . ?
H40B C40 H40C 109.5 . . ?

loop_
_geom_torsion_atom_site_label_1
_geom_torsion_atom_site_label_2
_geom_torsion_atom_site_label_3
_geom_torsion_atom_site_label_4
_geom_torsion
_geom_torsion_site_symmetry_1
_geom_torsion_site_symmetry_2
_geom_torsion_site_symmetry_3
_geom_torsion_site_symmetry_4
_geom_torsion_publ_flag
O10 Tb1 O1 C1 94.0(4) 4_575 . . . ?
O12 Tb1 O1 C1 175.7(5) 4_575 . . . ?
O3 Tb1 O1 C1 26.6(5) . . . . ?
O13 Tb1 O1 C1 -116.5(5) . . . . ?
O5 Tb1 O1 C1 -47.0(5) . . . . ?
O8 Tb1 O1 C1 166.1(4) 4_575 . . . ?
O11 Tb2 O2 C1 118.4(12) . . . . ?
O4 Tb2 O2 C1 -160.8(12) . . . . ?
O9 Tb2 O2 C1 -116.0(11) . . . . ?
O7 Tb2 O2 C1 37.0(12) . . . . ?
O6 Tb2 O2 C1 -33.7(12) . . . . ?
O5 Tb2 O2 C1 -79.5(12) . . . . ?
O8 Tb2 O2 C1 37.0(13) . . . . ?
C13 Tb2 O2 C1 -58.6(12) . . . . ?
C19 Tb2 O2 C1 30.9(12) . . . . ?
O10 Tb1 O3 C6 -134.5(6) 4_575 . . . ?
O1 Tb1 O3 C6 -62.7(6) . . . . ?
O12 Tb1 O3 C6 124.1(5) 4_575 . . . ?
O13 Tb1 O3 C6 35.9(6) . . . . ?
O5 Tb1 O3 C6 34.4(5) . . . . ?
O8 Tb1 O3 C6 -173.4(5) 4_575 . . . ?
C1 Tb1 O3 C6 -53.0(5) . . . . ?
O11 Tb2 O4 C6 163.3(4) . . . . ?
O9 Tb2 O4 C6 -96.3(4) . . . . ?
O2 Tb2 O4 C6 63.2(4) . . . . ?
O7 Tb2 O4 C6 93.4(4) . . . . ?
O6 Tb2 O4 C6 -33.2(4) . . . . ?
O5 Tb2 O4 C6 -15.5(4) . . . . ?
O8 Tb2 O4 C6 -152.6(3) . . . . ?
C13 Tb2 O4 C6 -28.4(4) . . . . ?
C19 Tb2 O4 C6 129.0(5) . . . . ?
O10 Tb1 O5 C13 -167.5(3) 4_575 . . . ?
O1 Tb1 O5 C13 -78.4(4) . . . . ?
O12 Tb1 O5 C13 92.6(4) 4_575 . . . ?
O3 Tb1 O5 C13 175.3(4) . . . . ?
O13 Tb1 O5 C13 -3.8(4) . . . . ?
O8 Tb1 O5 C13 29.7(5) 4_575 . . . ?
C1 Tb1 O5 C13 -94.3(4) . . . . ?
O10 Tb1 O5 Tb2 -51.1(2) 4_575 . . . ?
O1 Tb1 O5 Tb2 38.02(19) . . . . ?
O12 Tb1 O5 Tb2 -150.94(14) 4_575 . . . ?
O3 Tb1 O5 Tb2 -68.30(13) . . . . ?
O13 Tb1 O5 Tb2 112.60(16) . . . . ?
O8 Tb1 O5 Tb2 146.10(15) 4_575 . . . ?
C1 Tb1 O5 Tb2 22.06(15) . . . . ?
O11 Tb2 O5 C13 -155.1(3) . . . . ?
O4 Tb2 O5 C13 -151.4(3) . . . . ?
O9 Tb2 O5 C13 -68.7(2) . . . . ?
O2 Tb2 O5 C13 128.5(3) . . . . ?
O7 Tb2 O5 C13 63.9(3) . . . . ?
O6 Tb2 O5 C13 11.0(2) . . . . ?
O8 Tb2 O5 C13 8.5(3) . . . . ?
C19 Tb2 O5 C13 36.5(3) . . . . ?
O11 Tb2 O5 Tb1 65.4(4) . . . . ?
O4 Tb2 O5 Tb1 69.12(13) . . . . ?
O9 Tb2 O5 Tb1 151.81(15) . . . . ?
O2 Tb2 O5 Tb1 -10.91(15) . . . . ?
O7 Tb2 O5 Tb1 -75.52(14) . . . . ?
O6 Tb2 O5 Tb1 -128.50(19) . . . . ?
O8 Tb2 O5 Tb1 -130.93(11) . . . . ?
C13 Tb2 O5 Tb1 -139.5(3) . . . . ?
C19 Tb2 O5 Tb1 -103.00(14) . . . . ?
O11 Tb2 O6 C13 161.0(2) . . . . ?
O4 Tb2 O6 C13 10.9(3) . . . . ?
O9 Tb2 O6 C13 76.4(3) . . . . ?
O2 Tb2 O6 C13 -73.5(3) . . . . ?
O7 Tb2 O6 C13 -140.7(3) . . . . ?
O5 Tb2 O6 C13 -11.4(2) . . . . ?
O8 Tb2 O6 C13 166.3(3) . . . . ?
C19 Tb2 O6 C13 -164.8(3) . . . . ?
O11 Tb2 O7 C19 93.3(3) . . . . ?
O4 Tb2 O7 C19 162.8(2) . . . . ?
O9 Tb2 O7 C19 -3.9(4) . . . . ?
O2 Tb2 O7 C19 -166.0(3) . . . . ?
O6 Tb2 O7 C19 -57.6(3) . . . . ?
O5 Tb2 O7 C19 -98.1(3) . . . . ?
O8 Tb2 O7 C19 14.0(2) . . . . ?
C13 Tb2 O7 C19 -73.8(3) . . . . ?
O11 Tb2 O8 C19 -106.2(2) . . . . ?
O4 Tb2 O8 C19 -151.0(3) . . . . ?
O9 Tb2 O8 C19 153.4(2) . . . . ?
O2 Tb2 O8 C19 -13.7(3) . . . . ?
O7 Tb2 O8 C19 -13.7(2) . . . . ?
O6 Tb2 O8 C19 76.8(2) . . . . ?
O5 Tb2 O8 C19 78.9(2) . . . . ?
C13 Tb2 O8 C19 82.8(2) . . . . ?
O11 Tb2 O8 Tb1 43.01(14) . . . 4_676 ?
O4 Tb2 O8 Tb1 -1.8(3) . . . 4_676 ?
O9 Tb2 O8 Tb1 -57.40(16) . . . 4_676 ?
O2 Tb2 O8 Tb1 135.5(2) . . . 4_676 ?
O7 Tb2 O8 Tb1 135.5(2) . . . 4_676 ?
O6 Tb2 O8 Tb1 -133.93(18) . . . 4_676 ?
O5 Tb2 O8 Tb1 -131.84(13) . . . 4_676 ?
C13 Tb2 O8 Tb1 -127.98(15) . . . 4_676 ?
C19 Tb2 O8 Tb1 149.2(3) . . . 4_676 ?
O11 Tb2 O9 C24 -59.3(4) . . . . ?
O4 Tb2 O9 C24 -140.6(4) . . . . ?
O2 Tb2 O9 C24 175.2(4) . . . . ?
O7 Tb2 O9 C24 31.7(5) . . . . ?
O6 Tb2 O9 C24 85.7(4) . . . . ?
O5 Tb2 O9 C24 139.1(4) . . . . ?
O8 Tb2 O9 C24 17.8(4) . . . . ?
C13 Tb2 O9 C24 112.5(4) . . . . ?
C19 Tb2 O9 C24 29.9(4) . . . . ?
O4 Tb2 O11 C31 -173.2(4) . . . . ?
O9 Tb2 O11 C31 107.2(4) . . . . ?
O2 Tb2 O11 C31 -96.6(4) . . . . ?
O7 Tb2 O11 C31 -26.1(4) . . . . ?
O6 Tb2 O11 C31 29.9(5) . . . . ?
O5 Tb2 O11 C31 -169.6(4) . . . . ?
O8 Tb2 O11 C31 25.0(4) . . . . ?
C13 Tb2 O11 C31 69.7(7) . . . . ?
C19 Tb2 O11 C31 -0.4(4) . . . . ?
O10 Tb1 O13 C38 -14(7) 4_575 . . . ?
O1 Tb1 O13 C38 -71(7) . . . . ?
O12 Tb1 O13 C38 97(7) 4_575 . . . ?
O3 Tb1 O13 C38 -179(100) . . . . ?
O5 Tb1 O13 C38 -178(100) . . . . ?
O8 Tb1 O13 C38 21(7) 4_575 . . . ?
C1 Tb1 O13 C38 -90(7) . . . . ?
Tb1 O1 C1 O2 16.3(7) . . . . ?
Tb1 O1 C1 C3 -161.7(4) . . . . ?
Tb2 O2 C1 O1 80.4(13) . . . . ?
Tb2 O2 C1 C3 -101.6(12) . . . . ?
Tb2 O2 C1 Tb1 92.1(11) . . . . ?
O10 Tb1 C1 O1 -82.3(5) 4_575 . . . ?
O12 Tb1 C1 O1 -173.7(8) 4_575 . . . ?
O3 Tb1 C1 O1 -155.0(5) . . . . ?
O13 Tb1 C1 O1 61.6(5) . . . . ?
O5 Tb1 C1 O1 134.4(5) . . . . ?
O8 Tb1 C1 O1 -15.0(5) 4_575 . . . ?
O10 Tb1 C1 O2 112.3(3) 4_575 . . . ?
O1 Tb1 C1 O2 -165.4(6) . . . . ?
O12 Tb1 C1 O2 20.9(10) 4_575 . . . ?
O3 Tb1 C1 O2 39.6(3) . . . . ?
O13 Tb1 C1 O2 -103.8(3) . . . . ?
O5 Tb1 C1 O2 -31.0(3) . . . . ?
O8 Tb1 C1 O2 179.6(3) 4_575 . . . ?
O10 Tb1 C1 C3 -33.2(10) 4_575 . . . ?
O1 Tb1 C1 C3 49.1(10) . . . . ?
O12 Tb1 C1 C3 -124.5(11) 4_575 . . . ?
O3 Tb1 C1 C3 -105.9(10) . . . . ?
O13 Tb1 C1 C3 110.7(10) . . . . ?
O5 Tb1 C1 C3 -176.5(10) . . . . ?
O8 Tb1 C1 C3 34.2(11) 4_575 . . . ?
C25 C2 C3 C4 0.6(9) 2_545 . . . ?
C25 C2 C3 C1 -176.2(5) 2_545 . . . ?
O1 C1 C3 C2 -169.1(6) . . . . ?
O2 C1 C3 C2 12.9(8) . . . . ?
Tb1 C1 C3 C2 153.2(9) . . . . ?
O1 C1 C3 C4 14.1(8) . . . . ?
O2 C1 C3 C4 -163.9(5) . . . . ?
Tb1 C1 C3 C4 -23.6(13) . . . . ?
C2 C3 C4 C5 179.6(6) . . . . ?
C1 C3 C4 C5 -3.6(8) . . . . ?
C2 C3 C4 C27 -1.6(7) . . . 2_545 ?
C1 C3 C4 C27 175.2(4) . . . 2_545 ?
C27 C4 C5 C30 0.8(9) 2_545 . . 2_545 ?
C3 C4 C5 C30 179.6(6) . . . 2_545 ?
Tb1 O3 C6 O4 13.9(8) . . . . ?
Tb1 O3 C6 C9 -166.8(4) . . . . ?
Tb2 O4 C6 O3 -24.3(7) . . . . ?
Tb2 O4 C6 C9 156.3(3) . . . . ?
C20 C7 C8 C9 -0.6(7) 4_675 . . . ?
C7 C8 C9 C10 -1.0(7) . . . . ?
C7 C8 C9 C6 179.5(4) . . . . ?
O3 C6 C9 C8 -125.9(5) . . . . ?
O4 C6 C9 C8 53.6(6) . . . . ?
O3 C6 C9 C10 54.6(6) . . . . ?
O4 C6 C9 C10 -126.0(4) . . . . ?
C8 C9 C10 C11 -175.6(5) . . . . ?
C6 C9 C10 C11 3.9(7) . . . . ?
C8 C9 C10 C21 1.6(6) . . . 4_675 ?
C6 C9 C10 C21 -178.9(4) . . . 4_675 ?
C9 C10 C11 C12 176.9(6) . . . . ?
C21 C10 C11 C12 -0.3(9) 4_675 . . . ?
C10 C11 C12 C23 0.9(11) . . . 4_675 ?
Tb2 O6 C13 O5 20.3(4) . . . . ?
Tb2 O6 C13 C15 -153.8(3) . . . . ?
Tb1 O5 C13 O6 105.4(4) . . . . ?
Tb2 O5 C13 O6 -19.8(4) . . . . ?
Tb1 O5 C13 C15 -80.3(5) . . . . ?
Tb2 O5 C13 C15 154.4(3) . . . . ?
Tb1 O5 C13 Tb2 125.3(3) . . . . ?
O11 Tb2 C13 O6 -56.2(7) . . . . ?
O4 Tb2 C13 O6 -171.3(3) . . . . ?
O9 Tb2 C13 O6 -95.7(3) . . . . ?
O2 Tb2 C13 O6 110.2(3) . . . . ?
O7 Tb2 C13 O6 38.2(3) . . . . ?
O5 Tb2 C13 O6 160.0(4) . . . . ?
O8 Tb2 C13 O6 -12.6(3) . . . . ?
C19 Tb2 C13 O6 13.6(3) . . . . ?
O11 Tb2 C13 O5 143.8(5) . . . . ?
O4 Tb2 C13 O5 28.8(3) . . . . ?
O9 Tb2 C13 O5 104.3(3) . . . . ?
O2 Tb2 C13 O5 -49.8(2) . . . . ?
O7 Tb2 C13 O5 -121.7(2) . . . . ?
O6 Tb2 C13 O5 -160.0(4) . . . . ?
O8 Tb2 C13 O5 -172.6(2) . . . . ?
C19 Tb2 C13 O5 -146.4(2) . . . . ?
O11 Tb2 C13 C15 43.8(11) . . . . ?
O4 Tb2 C13 C15 -71.3(8) . . . . ?
O9 Tb2 C13 C15 4.3(8) . . . . ?
O2 Tb2 C13 C15 -149.8(8) . . . . ?
O7 Tb2 C13 C15 138.2(8) . . . . ?
O6 Tb2 C13 C15 100.0(8) . . . . ?
O5 Tb2 C13 C15 -100.0(8) . . . . ?
O8 Tb2 C13 C15 87.4(8) . . . . ?
C19 Tb2 C13 C15 113.6(8) . . . . ?
C32 C14 C15 C16 4.1(7) 2 . . . ?
C32 C14 C15 C13 -171.7(4) 2 . . . ?
O6 C13 C15 C14 151.6(4) . . . . ?
O5 C13 C15 C14 -22.6(6) . . . . ?
Tb2 C13 C15 C14 65.1(9) . . . . ?
O6 C13 C15 C16 -24.0(6) . . . . ?
O5 C13 C15 C16 161.8(4) . . . . ?
Tb2 C13 C15 C16 -110.5(8) . . . . ?
C14 C15 C16 C17 172.8(4) . . . . ?
C13 C15 C16 C17 -11.7(6) . . . . ?
C14 C15 C16 C34 -4.0(6) . . . 2 ?
C13 C15 C16 C34 171.5(4) . . . 2 ?
C34 C16 C17 C18 1.3(7) 2 . . . ?
C15 C16 C17 C18 -175.5(4) . . . . ?
C16 C17 C18 C36 -1.5(8) . . . 2 ?
Tb2 O7 C19 O8 -27.2(4) . . . . ?
Tb2 O7 C19 C20 147.1(3) . . . . ?
Tb1 O8 C19 O7 -107.9(5) 4_676 . . . ?
Tb2 O8 C19 O7 23.3(4) . . . . ?
Tb1 O8 C19 C20 77.7(6) 4_676 . . . ?
Tb2 O8 C19 C20 -151.1(4) . . . . ?
Tb1 O8 C19 Tb2 -131.2(4) 4_676 . . . ?
O11 Tb2 C19 O7 -84.6(3) . . . . ?
O4 Tb2 C19 O7 -50.5(6) . . . . ?
O9 Tb2 C19 O7 177.0(3) . . . . ?
O2 Tb2 C19 O7 13.4(3) . . . . ?
O6 Tb2 C19 O7 114.0(3) . . . . ?
O5 Tb2 C19 O7 91.8(3) . . . . ?
O8 Tb2 C19 O7 -155.0(4) . . . . ?
C13 Tb2 C19 O7 107.4(3) . . . . ?
O11 Tb2 C19 O8 70.4(2) . . . . ?
O4 Tb2 C19 O8 104.5(5) . . . . ?
O9 Tb2 C19 O8 -27.9(3) . . . . ?
O2 Tb2 C19 O8 168.4(3) . . . . ?
O7 Tb2 C19 O8 155.0(4) . . . . ?
O6 Tb2 C19 O8 -91.0(3) . . . . ?
O5 Tb2 C19 O8 -113.2(2) . . . . ?
C13 Tb2 C19 O8 -97.6(2) . . . . ?
O11 Tb2 C19 C20 -173.1(6) . . . . ?
O4 Tb2 C19 C20 -139.0(6) . . . . ?
O9 Tb2 C19 C20 88.6(6) . . . . ?
O2 Tb2 C19 C20 -75.1(6) . . . . ?
O7 Tb2 C19 C20 -88.4(7) . . . . ?
O6 Tb2 C19 C20 25.6(6) . . . . ?
O5 Tb2 C19 C20 3.3(7) . . . . ?
O8 Tb2 C19 C20 116.6(7) . . . . ?
C13 Tb2 C19 C20 19.0(6) . . . . ?
O7 C19 C20 C7 -147.3(4) . . . 4_576 ?
O8 C19 C20 C7 27.0(6) . . . 4_576 ?
Tb2 C19 C20 C7 -77.2(7) . . . 4_576 ?
O7 C19 C20 C21 29.8(6) . . . . ?
O8 C19 C20 C21 -155.8(4) . . . . ?
Tb2 C19 C20 C21 100.0(6) . . . . ?
C7 C20 C21 C22 -176.2(5) 4_576 . . . ?
C19 C20 C21 C22 6.8(7) . . . . ?
C7 C20 C21 C10 0.8(6) 4_576 . . 4_576 ?
C19 C20 C21 C10 -176.2(4) . . . 4_576 ?
C20 C21 C22 C23 176.1(6) . . . . ?
C10 C21 C22 C23 -0.9(8) 4_576 . . . ?
C21 C22 C23 C12 0.3(11) . . . 4_576 ?
Tb1 O10 C24 O9 -67.0(12) 4_676 . . . ?
Tb1 O10 C24 C26 110.3(9) 4_676 . . . ?
Tb2 O9 C24 O10 24.3(7) . . . . ?
Tb2 O9 C24 C26 -153.1(3) . . . . ?
C2 C25 C26 C27 -5.3(8) 2 . . . ?
C2 C25 C26 C24 167.7(5) 2 . . . ?
O10 C24 C26 C25 -146.6(5) . . . . ?
O9 C24 C26 C25 30.9(7) . . . . ?
O10 C24 C26 C27 26.1(7) . . . . ?
O9 C24 C26 C27 -156.5(4) . . . . ?
C25 C26 C27 C28 -174.6(5) . . . . ?
C24 C26 C27 C28 12.8(7) . . . . ?
C25 C26 C27 C4 4.2(7) . . . 2 ?
C24 C26 C27 C4 -168.4(4) . . . 2 ?
C26 C27 C28 C29 -178.4(5) . . . . ?
C4 C27 C28 C29 2.7(7) 2 . . . ?
C27 C28 C29 C30 0.0(9) . . . . ?
C28 C29 C30 C5 -2.4(11) . . . 2 ?
Tb1 O12 C31 O11 10.3(7) 4_676 . . . ?
Tb1 O12 C31 C33 -166.6(3) 4_676 . . . ?
Tb2 O11 C31 O12 -60.5(6) . . . . ?
Tb2 O11 C31 C33 116.4(4) . . . . ?
C14 C32 C33 C34 -3.9(7) 2_545 . . . ?
C14 C32 C33 C31 174.9(4) 2_545 . . . ?
O12 C31 C33 C32 40.9(6) . . . . ?
O11 C31 C33 C32 -136.1(4) . . . . ?
O12 C31 C33 C34 -140.3(4) . . . . ?
O11 C31 C33 C34 42.7(6) . . . . ?
C32 C33 C34 C35 -172.9(4) . . . . ?
C31 C33 C34 C35 8.3(6) . . . . ?
C32 C33 C34 C16 3.9(6) . . . 2_545 ?
C31 C33 C34 C16 -174.9(4) . . . 2_545 ?
C16 C34 C35 C36 -1.3(7) 2_545 . . . ?
C33 C34 C35 C36 175.5(5) . . . . ?
C34 C35 C36 C18 1.2(8) . . . 2_545 ?
C40 N1 C38 O13 -178.1(7) . . . . ?
C39 N1 C38 O13 0.4(11) . . . . ?
C40 N1 C38 C37 2.5(10) . . . . ?
C39 N1 C38 C37 -179.1(6) . . . . ?
Tb1 O13 C38 N1 89(7) . . . . ?
Tb1 O13 C38 C37 -92(7) . . . . ?

_diffrn_measured_fraction_theta_max 0.995
_diffrn_reflns_theta_full        28.28
_diffrn_measured_fraction_theta_full 0.995
_refine_diff_density_max         2.655
_refine_diff_density_min         -2.534
_refine_diff_density_rms         0.135
