####################################################################### 
# 
# This file contains crystal structure data downloaded from the 
# Cambridge Structural Database (CSD) hosted by the Cambridge 
# Crystallographic Data Centre (CCDC).
# 
# Full information about CCDC data access policies and citation 
# guidelines are available at http://www.ccdc.cam.ac.uk/access/V1 
# 
# Audit and citation data items may have been added by the CCDC. 
# Please retain this information to preserve the provenance of 
# this file and to allow appropriate attribution of the data. 
# 
#######################################################################

data_BIVVOR
#This CIF has been generated from an entry in the Cambridge Structural Database
_database_code_depnum_ccdc_archive 'CCDC 1111925'
_database_code_CSD               BIVVOR
loop_
_citation_id
_citation_doi
_citation_year
1 10.1039/a802715c 1998
_audit_creation_method           'Created from the CSD'
_audit_update_record             
;
2026-01-30 downloaded from the CCDC.
;
_database_code_NBS               709882
_chemical_formula_moiety         '(C3 H7 Gd1 O6 P2)n'
_chemical_name_systematic        
catena-((\m~4~-Propylenediphosphonato)-hydrido-gadolinium(iii))
_chemical_absolute_configuration unk
_diffrn_ambient_temperature      295
_exptl_crystal_density_diffrn    3.131
#These two values have been output from a single CSD field.
_refine_ls_R_factor_gt           0.034
_refine_ls_wR_factor_gt          0.034
_diffrn_radiation_probe          x-ray
_symmetry_cell_setting           monoclinic
_symmetry_space_group_name_H-M   'C 2/m'
_symmetry_Int_Tables_number      12
_space_group_name_Hall           '-C 2y'
loop_
_symmetry_equiv_pos_site_id
_symmetry_equiv_pos_as_xyz
1 x,y,z
2 -x,y,-z
3 1/2+x,1/2+y,z
4 1/2-x,1/2+y,-z
5 -x,-y,-z
6 x,-y,z
7 1/2-x,1/2-y,-z
8 1/2+x,1/2-y,z
_cell_length_a                   8.2141(3)
_cell_length_b                   18.9644(8)
_cell_length_c                   5.2622(2)
_cell_angle_alpha                90
_cell_angle_beta                 111.999(2)
_cell_angle_gamma                90
_cell_volume                     760.038
_cell_formula_units_Z            4
loop_
_atom_site_label
_atom_site_type_symbol
_atom_site_fract_x
_atom_site_fract_y
_atom_site_fract_z
Gd1 Gd 0.000 0.2677(1) 0.000
P1 P 0.246(1) 0.1506(4) 0.370(2)
O1 O 0.299(2) 0.2100(7) 0.222(3)
O2 O 0.052(2) 0.1641(6) 0.314(3)
O3 O 0.352(2) 0.1526(7) 0.666(3)
C1 C 0.220(4) 0.0000 0.359(6)
C2 C 0.253(3) 0.064(1) 0.220(5)
O1A O -0.299(2) 0.2100(7) -0.222(3)
O1F O 0.201(2) 0.2900(7) -0.222(3)
O1G O -0.201(2) 0.2900(7) 0.222(3)
O2A O -0.052(2) 0.1641(6) -0.314(3)
O3G O -0.148(2) 0.3474(7) -0.334(3)
O3F O 0.148(2) 0.3474(7) 0.334(3)
Gd1F Gd 0.500 0.2323(1) 0.000
C2E C 0.253(3) -0.064(1) 0.220(5)
P1E P 0.246(1) -0.1506(4) 0.370(2)
O1E O 0.299(2) -0.2100(7) 0.222(3)
O2E O 0.052(2) -0.1641(6) 0.314(3)
O3E O 0.352(2) -0.1526(7) 0.666(3)
Gd1D Gd 0.000 -0.2677(1) 0.000
Gd1B Gd 0.500 -0.2323(1) 0.000
Gd1B Gd 0.500 -0.2323(1) 1.000
Gd1F Gd 0.500 0.2323(1) 1.000

#END
