####################################################################### 
# 
# This file contains crystal structure data downloaded from the 
# Cambridge Structural Database (CSD) hosted by the Cambridge 
# Crystallographic Data Centre (CCDC).
# 
# Full information about CCDC data access policies and citation 
# guidelines are available at http://www.ccdc.cam.ac.uk/access/V1 
# 
# Audit and citation data items may have been added by the CCDC. 
# Please retain this information to preserve the provenance of 
# this file and to allow appropriate attribution of the data. 
# 
#######################################################################

data_Compound_3
_audit_block_doi                 10.5517/ccdc.csd.cc1kq0v4
_database_code_depnum_ccdc_archive 'CCDC 1451136'
loop_
_citation_id
_citation_doi
_citation_year
1 10.1002/chem.201600839 2016
_audit_update_record             
;
2016-02-01 deposited with the CCDC.	2026-01-30 downloaded from the CCDC.
;

_audit_creation_date             2016-02-01T12:19:57-00:00
_audit_creation_method           'WinGX routine CIF_UPDATE'

#----------------------------------------------------------------------------#
#                   CHEMICAL INFORMATION                                     #
#----------------------------------------------------------------------------#

_chemical_formula_sum            'C32 H66 Cl4 N4 Na4 O4 P4 S4'
_chemical_formula_weight         1056.76

#----------------------------------------------------------------------------#
#                   UNIT CELL INFORMATION                                    #
#----------------------------------------------------------------------------#

_symmetry_cell_setting           triclinic
_symmetry_space_group_name_H-M   'P -1'
_symmetry_space_group_name_Hall  '-P 1'
_symmetry_Int_Tables_number      2
loop_
_symmetry_equiv_pos_as_xyz
'x, y, z'
'-x, -y, -z'

_cell_length_a                   12.721(5)
_cell_length_b                   12.855(5)
_cell_length_c                   17.454(6)
_cell_angle_alpha                106.426(4)
_cell_angle_beta                 102.724(4)
_cell_angle_gamma                99.862(4)
_cell_volume                     2585.9(16)
_cell_formula_units_Z            2
_cell_measurement_temperature    100(2)
_cell_measurement_reflns_used    9996
_cell_measurement_theta_min      2.39
_cell_measurement_theta_max      26.52


#----------------------------------------------------------------------------#
#                   CRYSTAL INFORMATION                                      #
#----------------------------------------------------------------------------#

_exptl_crystal_description       block
_exptl_crystal_colour            'clear light colourless'
_exptl_crystal_size_max          0.2
_exptl_crystal_size_mid          0.2
_exptl_crystal_size_min          0.2
_exptl_crystal_density_diffrn    1.357
_exptl_crystal_density_method    'not measured'
_exptl_crystal_F_000             1108

#----------------------------------------------------------------------------#
#                   ABSORPTION CORRECTION                                    #
#----------------------------------------------------------------------------#

_exptl_absorpt_coefficient_mu    0.585
_exptl_absorpt_correction_type   multi-scan
_exptl_absorpt_process_details   
;
SADABS-2014/4 (Bruker,2014/4) was used for absorption correction.
wR2(int) was 0.0876 before and 0.0563 after correction.
The Ratio of minimum to maximum transmission is 0.8755.
The \l/2 correction factor is 0.00150.
;
_exptl_absorpt_correction_T_min  0.6528
_exptl_absorpt_correction_T_max  0.7456


#----------------------------------------------------------------------------#
#                   DATA COLLECTION                                          #
#----------------------------------------------------------------------------#

_diffrn_source                   'fine-focus sealed tube'
_diffrn_ambient_temperature      100(2)
_diffrn_radiation_wavelength     0.71073
_diffrn_radiation_type           MoK\a
_diffrn_radiation_monochromator  graphite
_diffrn_measurement_device_type  'Bruker APEX-II CCD'
_diffrn_reflns_av_R_equivalents  0.0491
_diffrn_reflns_av_unetI/netI     0.054
_diffrn_reflns_number            39413
_diffrn_reflns_limit_h_min       -15
_diffrn_reflns_limit_h_max       15
_diffrn_reflns_limit_k_min       -15
_diffrn_reflns_limit_k_max       15
_diffrn_reflns_limit_l_min       -20
_diffrn_reflns_limit_l_max       21
_diffrn_reflns_theta_min         1.269
_diffrn_reflns_theta_max         25.35
_diffrn_reflns_theta_full        25.242
_diffrn_measured_fraction_theta_full 0.997
_diffrn_measured_fraction_theta_max 0.997
_diffrn_reflns_Laue_measured_fraction_full 0.997
_diffrn_reflns_Laue_measured_fraction_max 0.997
_diffrn_reflns_point_group_measured_fraction_full 0.997
_diffrn_reflns_point_group_measured_fraction_max 0.997
_reflns_Friedel_coverage         0
_reflns_number_total             9441
_reflns_number_gt                7417
_reflns_threshold_expression     'I > 2\s(I)'

#----------------------------------------------------------------------------#
#                   COMPUTER PROGRAMS USED                                   #
#----------------------------------------------------------------------------#

_computing_structure_refinement  'SHELXL-2014/7 (Sheldrick, 2014)'

#----------------------------------------------------------------------------#
#                   STRUCTURE SOLUTION                                       #
#----------------------------------------------------------------------------#

_atom_sites_solution_hydrogens   geom

#----------------------------------------------------------------------------#
#                   REFINEMENT INFORMATION                                   #
#----------------------------------------------------------------------------#

_refine_ls_structure_factor_coef Fsqd
_refine_ls_matrix_type           full
_refine_ls_weighting_scheme      calc
_refine_ls_weighting_details     
'w=1/[\s^2^(Fo^2^)+(0.0670P)^2^+11.5613P] where P=(Fo^2^+2Fc^2^)/3'
_refine_ls_hydrogen_treatment    constr
_refine_ls_extinction_method     none
_refine_ls_number_reflns         9441
_refine_ls_number_parameters     499
_refine_ls_number_restraints     0
_refine_ls_R_factor_all          0.0821
_refine_ls_R_factor_gt           0.0634
_refine_ls_wR_factor_ref         0.1729
_refine_ls_wR_factor_gt          0.1636
_refine_ls_goodness_of_fit_ref   1.096
_refine_ls_restrained_S_all      1.096
_refine_ls_shift/su_max          0.001
_refine_ls_shift/su_mean         0
_refine_diff_density_max         1.094
_refine_diff_density_min         -1.11
_refine_diff_density_rms         0.112

#----------------------------------------------------------------------------#
#                   CONSTRAINTS AND RESTRAINTS                               #
#----------------------------------------------------------------------------#


#----------------------------------------------------------------------------#
#                   ATOMIC TYPES, COORDINATES AND THERMAL PARAMETERS         #
#----------------------------------------------------------------------------#

loop_
_atom_type_symbol
_atom_type_description
_atom_type_scat_dispersion_real
_atom_type_scat_dispersion_imag
_atom_type_scat_source
C C 0.0033 0.0016 'International Tables Vol C Tables 4.2.6.8 and 6.1.1.4'
H H 0 0 'International Tables Vol C Tables 4.2.6.8 and 6.1.1.4'
Cl Cl 0.1484 0.1585 'International Tables Vol C Tables 4.2.6.8 and 6.1.1.4'
N N 0.0061 0.0033 'International Tables Vol C Tables 4.2.6.8 and 6.1.1.4'
Na Na 0.0362 0.0249 'International Tables Vol C Tables 4.2.6.8 and 6.1.1.4'
O O 0.0106 0.006 'International Tables Vol C Tables 4.2.6.8 and 6.1.1.4'
P P 0.1023 0.0942 'International Tables Vol C Tables 4.2.6.8 and 6.1.1.4'
S S 0.1246 0.1234 'International Tables Vol C Tables 4.2.6.8 and 6.1.1.4'

loop_
_atom_site_label
_atom_site_type_symbol
_atom_site_fract_x
_atom_site_fract_y
_atom_site_fract_z
_atom_site_U_iso_or_equiv
_atom_site_adp_type
_atom_site_occupancy
_atom_site_site_symmetry_order
_atom_site_calc_flag
_atom_site_refinement_flags_posn
_atom_site_refinement_flags_adp
_atom_site_refinement_flags_occupancy
_atom_site_disorder_assembly
_atom_site_disorder_group
C25 C 0.3864(4) 0.4897(4) 1.1065(3) 0.0230(11) Uani 1 1 d . . . . .
C26 C -0.1047(4) -0.2057(5) 0.5661(3) 0.0257(12) Uani 1 1 d . . . . .
H26A H -0.104 -0.2629 0.5931 0.039 Uiso 1 1 calc R U . . .
H26B H -0.1562 -0.2385 0.5098 0.039 Uiso 1 1 calc R U . . .
H26C H -0.1288 -0.1435 0.5986 0.039 Uiso 1 1 calc R U . . .
C29 C 0.0954(4) -0.1186(4) 0.6470(3) 0.0232(11) Uani 1 1 d . . . . .
H29A H 0.0739 -0.0575 0.6831 0.035 Uiso 1 1 calc R U . . .
H29B H 0.1699 -0.0909 0.6428 0.035 Uiso 1 1 calc R U . . .
H29C H 0.0959 -0.1792 0.6707 0.035 Uiso 1 1 calc R U . . .
C31 C 0.4600(5) 0.4920(4) 1.1884(3) 0.0257(12) Uani 1 1 d . . . . .
H31A H 0.4165 0.4942 1.2285 0.039 Uiso 1 1 calc R U . . .
H31B H 0.5226 0.5586 1.2103 0.039 Uiso 1 1 calc R U . . .
H31C H 0.4884 0.4246 1.1794 0.039 Uiso 1 1 calc R U . . .
C32 C 0.0471(4) -0.2574(4) 0.5037(3) 0.0234(11) Uani 1 1 d . . . . .
H32A H 0.0433 -0.3205 0.5249 0.035 Uiso 1 1 calc R U . . .
H32B H 0.1234 -0.2303 0.5026 0.035 Uiso 1 1 calc R U . . .
H32C H -0.0034 -0.2821 0.4472 0.035 Uiso 1 1 calc R U . . .
C33 C 0.0126(4) -0.1624(4) 0.5609(3) 0.0190(10) Uani 1 1 d . . . . .
C34 C 0.2894(5) 0.3863(5) 1.0711(4) 0.0331(14) Uani 1 1 d . . . . .
H34A H 0.3178 0.319 1.0633 0.05 Uiso 1 1 calc R U . . .
H34B H 0.2439 0.3846 1.0173 0.05 Uiso 1 1 calc R U . . .
H34C H 0.2438 0.3887 1.1098 0.05 Uiso 1 1 calc R U . . .
C36 C 0.3411(5) 0.5956(4) 1.1200(3) 0.0249(12) Uani 1 1 d . . . . .
H36A H 0.2961 0.597 1.159 0.037 Uiso 1 1 calc R U . . .
H36B H 0.2949 0.5943 1.0666 0.037 Uiso 1 1 calc R U . . .
H36C H 0.4034 0.6624 1.1429 0.037 Uiso 1 1 calc R U . . .
C39 C 0.0044(6) 0.3759(6) 0.9217(4) 0.0467(8) Uani 1 1 d . . . . .
H39C H -0.0423 0.4116 0.8892 0.056 Uiso 0.5 1 calc R U P A 2
H39D H 0.0636 0.4342 0.9682 0.056 Uiso 0.5 1 calc R U P A 2
H39A H -0.0636 0.3859 0.8873 0.056 Uiso 0.5 1 calc R U P B 1
H39B H 0.0597 0.4493 0.947 0.056 Uiso 0.5 1 calc R U P B 1
C44 C 0.0203(6) 0.1898(6) 0.8799(4) 0.0467(8) Uani 1 1 d . . . . .
H44C H 0.0879 0.1674 0.9029 0.056 Uiso 0.5 1 calc R U P C 2
H44D H -0.0231 0.1317 0.826 0.056 Uiso 0.5 1 calc R U P C 2
H44A H 0.0824 0.1533 0.8763 0.056 Uiso 0.5 1 calc R U P D 1
H44B H -0.0463 0.1417 0.8342 0.056 Uiso 0.5 1 calc R U P D 1
C46 C -0.0700(5) 0.4144(5) 0.7088(4) 0.0404(15) Uani 1 1 d . . . . .
H46A H -0.1021 0.4329 0.7562 0.049 Uiso 1 1 calc R U . . .
H46B H -0.1003 0.3336 0.6765 0.049 Uiso 1 1 calc R U . . .
C48 C 0.0851(5) 0.5560(5) 0.7490(4) 0.0415(16) Uani 1 1 d . . . . .
H48A H 0.1648 0.5765 0.7517 0.05 Uiso 1 1 calc R U . . .
H48B H 0.0732 0.6039 0.8001 0.05 Uiso 1 1 calc R U . . .
C49 C -0.0982(5) 0.4832(5) 0.6545(4) 0.0402(15) Uani 1 1 d . . . . .
H49A H -0.1549 0.5225 0.6699 0.048 Uiso 1 1 calc R U . . .
H49B H -0.1266 0.4358 0.5951 0.048 Uiso 1 1 calc R U . . .
C50 C 0.0114(6) 0.5660(7) 0.6711(6) 0.062(2) Uani 1 1 d . . . . .
H50A H 0.0017 0.6431 0.6812 0.074 Uiso 1 1 calc R U . . .
H50B H 0.0434 0.546 0.6238 0.074 Uiso 1 1 calc R U . . .
C54A C -0.0022(14) 0.2008(12) 0.9600(10) 0.0467(8) Uani 0.5 1 d . . P E 1
H54A H 0.0619 0.194 1.0006 0.056 Uiso 0.5 1 calc R U P E 1
H54C H -0.0692 0.1434 0.9536 0.056 Uiso 0.5 1 calc R U P E 1
C54B C -0.0509(13) 0.2076(13) 0.9420(10) 0.0467(8) Uani 0.5 1 d . . P E 2
H54B H -0.0764 0.1547 0.9666 0.056 Uiso 0.5 1 calc R U P E 2
C55A C -0.0235(14) 0.3337(12) 0.9908(10) 0.0467(8) Uani 0.5 1 d . . P E 1
H55A H -0.1015 0.3314 0.9914 0.056 Uiso 0.5 1 calc R U P E 1
H55C H 0.0272 0.3803 1.0464 0.056 Uiso 0.5 1 calc R U P E 1
C55B C -0.0672(13) 0.2916(12) 0.9530(9) 0.0467(8) Uani 0.5 1 d . . P E 2
H55B H -0.1215 0.3123 0.9799 0.056 Uiso 0.5 1 calc R U P E 2
N21 N 0.0188(3) -0.0671(3) 0.5266(2) 0.0161(8) Uani 1 1 d . . . . .
N23 N 0.4531(3) 0.4847(3) 1.0451(3) 0.0188(9) Uani 1 1 d . . . . .
O17 O 0.0486(3) 0.4403(3) 0.7381(3) 0.0327(9) Uani 1 1 d . . . . .
O20 O 0.0485(4) 0.2966(4) 0.8705(3) 0.0467(8) Uani 1 1 d . . . . .
Na14 Na 0.15259(16) 0.31854(16) 0.77870(12) 0.0212(4) Uani 1 1 d . . . . .
Na16 Na 0.25476(16) 0.01960(17) 0.50634(12) 0.0238(5) Uani 1 1 d . . . . .
P3 P 0.41097(11) 0.45432(10) 0.94006(8) 0.0175(3) Uani 1 1 d . . . . .
P5 P 0.02871(10) 0.07091(10) 0.57387(7) 0.0144(3) Uani 1 1 d . . . . .
S8 S 0.36426(11) 0.29159(10) 0.87526(8) 0.0220(3) Uani 1 1 d . . . . .
S9 S -0.07685(11) 0.10155(11) 0.64060(8) 0.0220(3) Uani 1 1 d . . . . .
Cl6 Cl 0.30625(11) 0.53938(10) 0.90178(8) 0.0263(3) Uani 1 1 d . . . . .
Cl10 Cl 0.18388(10) 0.16049(11) 0.63281(8) 0.0252(3) Uani 1 1 d . . . . .
C37 C 0.1970(4) 0.0708(5) 0.2153(4) 0.0290(12) Uani 1 1 d . . . . .
H37A H 0.1905 0.0528 0.2658 0.035 Uiso 1 1 calc R U . . .
H37B H 0.2057 0.004 0.1744 0.035 Uiso 1 1 calc R U . . .
C40 C 0.0942(5) 0.1065(6) 0.1781(4) 0.0410(15) Uani 1 1 d . . . . .
H40A H 0.0637 0.0649 0.1176 0.049 Uiso 1 1 calc R U . . .
H40B H 0.0356 0.0928 0.2057 0.049 Uiso 1 1 calc R U . . .
C41 C 0.2515(6) 0.2607(6) 0.2515(5) 0.0527(19) Uani 1 1 d . . . . .
H41 H 0.2908 0.3325 0.2906 0.063 Uiso 1 1 calc R U . . .
C51 C 0.1351(7) 0.2285(7) 0.1938(7) 0.088(4) Uani 1 1 d . . . . .
H51A H 0.0874 0.2713 0.2204 0.106 Uiso 1 1 calc R U . . .
H51B H 0.1358 0.243 0.1412 0.106 Uiso 1 1 calc R U . . .
O19 O 0.2895(3) 0.1639(3) 0.2356(3) 0.0350(10) Uani 1 1 d . . . . .
Na15 Na 0.47314(16) 0.15770(16) 0.28280(12) 0.0230(4) Uani 1 1 d . . . . .
C42 C 0.4546(6) 0.5691(6) 0.5851(4) 0.0478(18) Uani 1 1 d . . . . .
H42A H 0.5187 0.5395 0.6042 0.057 Uiso 1 1 calc R U . . .
H42B H 0.4698 0.6049 0.5441 0.057 Uiso 1 1 calc R U . . .
C52 C 0.3279(6) 0.6107(6) 0.6601(5) 0.057(2) Uani 1 1 d . . . . .
H52A H 0.2792 0.6568 0.6421 0.069 Uiso 1 1 calc R U . . .
H52B H 0.33 0.6162 0.7181 0.069 Uiso 1 1 calc R U . . .
C53 C 0.3528(8) 0.4785(8) 0.5475(7) 0.106(4) Uani 1 1 d . . . . .
H53A H 0.3121 0.4819 0.4933 0.127 Uiso 1 1 calc R U . . .
H53B H 0.3712 0.405 0.5379 0.127 Uiso 1 1 calc R U . . .
C56 C 0.2845(8) 0.4925(8) 0.6048(6) 0.090(4) Uani 1 1 d . . . . .
H56A H 0.2918 0.441 0.6373 0.108 Uiso 1 1 calc R U . . .
H56B H 0.2051 0.4777 0.5741 0.108 Uiso 1 1 calc R U . . .
O18 O 0.4369(3) 0.6494(3) 0.6552(2) 0.0343(10) Uani 1 1 d . . . . .
C27 C 0.5844(4) 1.1739(4) 0.6350(3) 0.0195(11) Uani 1 1 d . . . . .
C28 C 0.6494(5) 1.2714(4) 0.6163(3) 0.0274(12) Uani 1 1 d . . . . .
H28A H 0.5996 1.2905 0.5739 0.041 Uiso 1 1 calc R U . . .
H28B H 0.7107 1.2492 0.5957 0.041 Uiso 1 1 calc R U . . .
H28C H 0.6794 1.3365 0.6674 0.041 Uiso 1 1 calc R U . . .
C35 C 0.4840(4) 1.2047(4) 0.6624(3) 0.0265(12) Uani 1 1 d . . . . .
H35A H 0.51 1.2694 0.7139 0.04 Uiso 1 1 calc R U . . .
H35B H 0.4415 1.141 0.6721 0.04 Uiso 1 1 calc R U . . .
H35C H 0.4363 1.2235 0.6186 0.04 Uiso 1 1 calc R U . . .
C45 C 0.6598(4) 1.1472(4) 0.7034(3) 0.0239(11) Uani 1 1 d . . . . .
H45A H 0.7215 1.1231 0.6845 0.036 Uiso 1 1 calc R U . . .
H45B H 0.6171 1.087 0.7168 0.036 Uiso 1 1 calc R U . . .
H45C H 0.6894 1.2142 0.7532 0.036 Uiso 1 1 calc R U . . .
N22 N 0.5477(3) 1.0743(3) 0.5576(2) 0.0165(8) Uani 1 1 d . . . . .
P4 P 0.49834(10) 0.93573(10) 0.54363(8) 0.0152(3) Uani 1 1 d . . . . .
S2 S 0.61579(10) 0.85644(11) 0.56723(8) 0.0212(3) Uani 1 1 d . . . . .
Cl1 Cl 0.37674(10) 0.90399(11) 0.59483(8) 0.0256(3) Uani 1 1 d . . . . .
C30 C 0.2365(5) 0.8436(5) -0.0740(4) 0.0318(13) Uani 1 1 d . . . . .
H30A H 0.2561 0.8361 -0.0186 0.048 Uiso 1 1 calc R U . . .
H30B H 0.2655 0.7914 -0.1116 0.048 Uiso 1 1 calc R U . . .
H30C H 0.1554 0.8265 -0.0957 0.048 Uiso 1 1 calc R U . . .
C38 C 0.2876(4) 0.9643(4) -0.0677(3) 0.0241(11) Uani 1 1 d . . . . .
C43 C 0.2377(5) 1.0463(5) -0.0122(4) 0.0326(13) Uani 1 1 d . . . . .
H43A H 0.1564 1.0244 -0.034 0.049 Uiso 1 1 calc R U . . .
H43B H 0.2658 1.1223 -0.012 0.049 Uiso 1 1 calc R U . . .
H43C H 0.2593 1.0445 0.0448 0.049 Uiso 1 1 calc R U . . .
C47 C 0.2643(5) 0.9736(5) -0.1538(3) 0.0305(13) Uani 1 1 d . . . . .
H47A H 0.2997 0.9238 -0.1876 0.046 Uiso 1 1 calc R U . . .
H47B H 0.2944 1.051 -0.1497 0.046 Uiso 1 1 calc R U . . .
H47C H 0.1838 0.9519 -0.18 0.046 Uiso 1 1 calc R U . . .
N24 N 0.4112(3) 0.9965(3) -0.0297(2) 0.0164(8) Uani 1 1 d . . . . .
Na13 Na 0.46623(17) 0.74870(16) 0.00960(12) 0.0222(4) Uani 1 1 d . . . . .
P11 P 0.48571(10) 1.03571(10) 0.07214(7) 0.0147(3) Uani 1 1 d . . . . .
S12 S 0.51194(12) 1.19793(10) 0.13354(8) 0.0228(3) Uani 1 1 d . . . . .
Cl7 Cl 0.43650(12) 0.93747(10) 0.13326(8) 0.0260(3) Uani 1 1 d . . . . .

loop_
_atom_site_aniso_label
_atom_site_aniso_U_11
_atom_site_aniso_U_22
_atom_site_aniso_U_33
_atom_site_aniso_U_23
_atom_site_aniso_U_13
_atom_site_aniso_U_12
C25 0.026(3) 0.021(3) 0.018(3) 0.000(2) 0.009(2) 0.004(2)
C26 0.022(3) 0.027(3) 0.026(3) 0.011(2) 0.005(2) 0.001(2)
C29 0.023(3) 0.028(3) 0.023(3) 0.015(2) 0.006(2) 0.006(2)
C31 0.037(3) 0.022(3) 0.023(3) 0.009(2) 0.012(2) 0.011(2)
C32 0.027(3) 0.020(3) 0.026(3) 0.009(2) 0.008(2) 0.006(2)
C33 0.025(3) 0.018(2) 0.017(3) 0.010(2) 0.006(2) 0.007(2)
C34 0.030(3) 0.033(3) 0.031(3) 0.003(3) 0.015(3) -0.001(3)
C36 0.030(3) 0.026(3) 0.019(3) 0.003(2) 0.010(2) 0.014(2)
C39 0.062(2) 0.0416(17) 0.0503(19) 0.0241(15) 0.0305(17) 0.0150(15)
C44 0.062(2) 0.0416(17) 0.0503(19) 0.0241(15) 0.0305(17) 0.0150(15)
C46 0.028(3) 0.035(3) 0.050(4) 0.014(3) -0.001(3) 0.003(3)
C48 0.029(3) 0.037(4) 0.061(4) 0.031(3) 0.003(3) 0.002(3)
C49 0.037(4) 0.035(3) 0.044(4) 0.011(3) 0.002(3) 0.015(3)
C50 0.041(4) 0.072(5) 0.092(6) 0.064(5) 0.012(4) 0.013(4)
C54A 0.062(2) 0.0416(17) 0.0503(19) 0.0241(15) 0.0305(17) 0.0150(15)
C54B 0.062(2) 0.0416(17) 0.0503(19) 0.0241(15) 0.0305(17) 0.0150(15)
C55A 0.062(2) 0.0416(17) 0.0503(19) 0.0241(15) 0.0305(17) 0.0150(15)
C55B 0.062(2) 0.0416(17) 0.0503(19) 0.0241(15) 0.0305(17) 0.0150(15)
N21 0.015(2) 0.018(2) 0.016(2) 0.0060(17) 0.0060(16) 0.0036(16)
N23 0.020(2) 0.017(2) 0.017(2) 0.0012(17) 0.0031(17) 0.0053(17)
O17 0.023(2) 0.027(2) 0.046(2) 0.0167(19) 0.0014(18) 0.0035(16)
O20 0.062(2) 0.0416(17) 0.0503(19) 0.0241(15) 0.0305(17) 0.0150(15)
Na14 0.0249(11) 0.0227(10) 0.0178(10) 0.0067(8) 0.0071(8) 0.0094(8)
Na16 0.0180(10) 0.0310(11) 0.0245(11) 0.0096(9) 0.0087(8) 0.0078(9)
P3 0.0209(7) 0.0125(6) 0.0156(6) 0.0020(5) 0.0016(5) 0.0044(5)
P5 0.0140(6) 0.0164(6) 0.0128(6) 0.0040(5) 0.0046(5) 0.0038(5)
S8 0.0273(7) 0.0124(6) 0.0205(7) 0.0010(5) 0.0010(5) 0.0050(5)
S9 0.0217(7) 0.0270(7) 0.0191(6) 0.0056(5) 0.0101(5) 0.0090(5)
Cl6 0.0277(7) 0.0196(6) 0.0276(7) 0.0059(5) 0.0005(5) 0.0084(5)
Cl10 0.0174(6) 0.0295(7) 0.0226(7) 0.0034(5) 0.0023(5) 0.0032(5)
C37 0.025(3) 0.026(3) 0.031(3) 0.007(2) 0.007(2) 0.002(2)
C40 0.026(3) 0.050(4) 0.046(4) 0.016(3) 0.007(3) 0.010(3)
C41 0.039(4) 0.029(3) 0.072(5) 0.006(3) -0.004(4) 0.003(3)
C51 0.039(5) 0.050(5) 0.149(10) 0.038(6) -0.024(5) -0.002(4)
O19 0.025(2) 0.036(2) 0.043(2) 0.019(2) 0.0046(18) 0.0012(18)
Na15 0.0229(11) 0.0234(10) 0.0210(11) 0.0068(8) 0.0050(8) 0.0038(8)
C42 0.058(4) 0.038(4) 0.039(4) -0.002(3) 0.025(3) 0.003(3)
C52 0.032(4) 0.052(4) 0.063(5) -0.012(4) 0.018(3) -0.007(3)
C53 0.068(6) 0.065(6) 0.118(9) -0.059(6) 0.036(6) -0.013(5)
C56 0.077(6) 0.063(6) 0.090(7) -0.026(5) 0.045(6) -0.029(5)
O18 0.035(2) 0.028(2) 0.029(2) -0.0016(17) 0.0126(18) -0.0040(17)
C27 0.017(2) 0.019(2) 0.017(3) -0.002(2) 0.005(2) 0.003(2)
C28 0.024(3) 0.023(3) 0.027(3) 0.002(2) 0.002(2) 0.003(2)
C35 0.021(3) 0.025(3) 0.026(3) -0.004(2) 0.006(2) 0.010(2)
C45 0.023(3) 0.028(3) 0.016(3) 0.000(2) 0.005(2) 0.007(2)
N22 0.015(2) 0.016(2) 0.013(2) 0.0006(16) 0.0028(16) -0.0016(16)
P4 0.0132(6) 0.0164(6) 0.0153(6) 0.0033(5) 0.0055(5) 0.0031(5)
S2 0.0173(6) 0.0241(7) 0.0237(7) 0.0076(5) 0.0069(5) 0.0078(5)
Cl1 0.0199(6) 0.0336(7) 0.0277(7) 0.0131(6) 0.0112(5) 0.0069(5)
C30 0.022(3) 0.026(3) 0.038(3) 0.005(3) 0.000(2) 0.001(2)
C38 0.017(3) 0.024(3) 0.026(3) 0.008(2) 0.000(2) 0.003(2)
C43 0.019(3) 0.035(3) 0.040(3) 0.009(3) 0.004(2) 0.009(2)
C47 0.027(3) 0.030(3) 0.028(3) 0.009(2) -0.003(2) 0.004(2)
N24 0.019(2) 0.015(2) 0.015(2) 0.0054(16) 0.0049(17) 0.0033(16)
Na13 0.0293(11) 0.0168(10) 0.0213(10) 0.0072(8) 0.0067(9) 0.0069(8)
P11 0.0209(6) 0.0127(6) 0.0121(6) 0.0045(5) 0.0065(5) 0.0052(5)
S12 0.0361(8) 0.0139(6) 0.0173(6) 0.0039(5) 0.0075(6) 0.0059(5)
Cl7 0.0408(8) 0.0200(6) 0.0234(7) 0.0112(5) 0.0158(6) 0.0085(5)


#----------------------------------------------------------------------------#
#                   MOLECULAR GEOMETRY                                       #
#----------------------------------------------------------------------------#

_geom_special_details            
;
 All esds (except the esd in the dihedral angle between two l.s. planes)
 are estimated using the full covariance matrix.  The cell esds are taken
 into account individually in the estimation of esds in distances, angles
 and torsion angles; correlations between esds in cell parameters are only
 used when they are defined by crystal symmetry.  An approximate (isotropic)
 treatment of cell esds is used for estimating esds involving l.s. planes.
;
loop_
_geom_bond_atom_site_label_1
_geom_bond_atom_site_label_2
_geom_bond_distance
_geom_bond_site_symmetry_2
_geom_bond_publ_flag
C25 N23 1.500(6) . ?
C25 C31 1.517(7) . ?
C25 C34 1.520(7) . ?
C25 C36 1.545(7) . ?
C26 C33 1.532(7) . ?
C29 C33 1.518(7) . ?
C32 C33 1.539(7) . ?
C33 N21 1.505(6) . ?
C39 O20 1.433(8) . ?
C39 C55A 1.538(15) . ?
C39 C55B 1.587(15) . ?
C44 O20 1.424(8) . ?
C44 C54A 1.460(16) . ?
C44 C54B 1.552(16) . ?
C46 O17 1.428(7) . ?
C46 C49 1.497(9) . ?
C48 O17 1.425(7) . ?
C48 C50 1.523(9) . ?
C49 C50 1.517(9) . ?
C54A C55A 1.73(2) . ?
C54B C55B 1.106(19) . ?
N21 P5 1.701(4) . ?
N21 P5 1.708(4) 2_556 ?
N23 P3 1.701(4) . ?
N23 P3 1.702(4) 2_667 ?
O17 Na14 2.372(4) . ?
O20 Na14 2.337(5) . ?
Na14 Cl10 2.927(2) . ?
Na14 S8 2.977(2) . ?
Na14 Cl6 3.049(2) . ?
Na16 Cl1 2.834(2) 1_545 ?
Na16 S2 2.844(2) 2_666 ?
Na16 S9 2.846(2) 2_556 ?
Na16 Cl10 2.853(2) . ?
Na16 P5 3.426(3) 2_556 ?
Na16 P5 3.435(2) . ?
Na16 P4 3.439(2) 2_666 ?
Na16 P4 3.441(3) 1_545 ?
P3 N23 1.702(4) 2_667 ?
P3 Cl6 1.9841(18) . ?
P3 S8 1.9870(18) . ?
P3 P3 2.549(3) 2_667 ?
P5 N21 1.708(4) 2_556 ?
P5 S9 1.9813(18) . ?
P5 Cl10 1.9844(18) . ?
P5 P5 2.561(2) 2_556 ?
P5 Na16 3.426(3) 2_556 ?
S8 Na13 2.832(2) 2_666 ?
S9 Na16 2.846(3) 2_556 ?
Cl6 Na13 2.915(2) 1_556 ?
C37 O19 1.427(6) . ?
C37 C40 1.529(8) . ?
C40 C51 1.491(10) . ?
C41 O19 1.390(8) . ?
C41 C51 1.508(10) . ?
O19 Na15 2.322(4) . ?
Na15 O18 2.365(4) 2_666 ?
Na15 Cl1 2.918(2) 2_666 ?
Na15 S12 2.922(3) 1_545 ?
Na15 S2 3.109(3) 2_666 ?
Na15 Cl7 3.143(2) 1_545 ?
C42 O18 1.449(7) . ?
C42 C53 1.463(10) . ?
C52 O18 1.420(7) . ?
C52 C56 1.481(10) . ?
C53 C56 1.457(13) . ?
O18 Na15 2.365(4) 2_666 ?
C27 N22 1.491(6) . ?
C27 C45 1.518(7) . ?
C27 C35 1.534(7) . ?
C27 C28 1.534(7) . ?
N22 P4 1.694(4) 2_676 ?
N22 P4 1.712(4) . ?
P4 N22 1.694(4) 2_676 ?
P4 S2 1.9821(18) . ?
P4 Cl1 1.9892(18) . ?
P4 P4 2.546(3) 2_676 ?
P4 Na16 3.439(2) 2_666 ?
P4 Na16 3.441(3) 1_565 ?
S2 Na16 2.844(2) 2_666 ?
S2 Na15 3.109(3) 2_666 ?
Cl1 Na16 2.834(2) 1_565 ?
Cl1 Na15 2.918(2) 2_666 ?
C30 C38 1.539(7) . ?
C38 N24 1.498(6) . ?
C38 C47 1.509(8) . ?
C38 C43 1.542(8) . ?
N24 P11 1.697(4) 2_675 ?
N24 P11 1.703(4) . ?
Na13 S12 2.828(2) 2_675 ?
Na13 S8 2.832(2) 2_666 ?
Na13 Cl7 2.899(2) . ?
Na13 Cl6 2.915(2) 1_554 ?
P11 N24 1.697(4) 2_675 ?
P11 Cl7 1.9774(18) . ?
P11 S12 1.9871(18) . ?
P11 P11 2.555(2) 2_675 ?
S12 Na13 2.828(2) 2_675 ?
S12 Na15 2.922(3) 1_565 ?
Cl7 Na15 3.143(2) 1_565 ?

loop_
_geom_angle_atom_site_label_1
_geom_angle_atom_site_label_2
_geom_angle_atom_site_label_3
_geom_angle
_geom_angle_site_symmetry_1
_geom_angle_site_symmetry_3
_geom_angle_publ_flag
N23 C25 C31 109.1(4) . . ?
N23 C25 C34 108.2(4) . . ?
C31 C25 C34 110.3(5) . . ?
N23 C25 C36 110.1(4) . . ?
C31 C25 C36 109.9(4) . . ?
C34 C25 C36 109.2(5) . . ?
N21 C33 C29 107.0(4) . . ?
N21 C33 C26 111.8(4) . . ?
C29 C33 C26 110.4(4) . . ?
N21 C33 C32 108.2(4) . . ?
C29 C33 C32 109.6(4) . . ?
C26 C33 C32 109.8(4) . . ?
O20 C39 C55A 109.7(7) . . ?
O20 C39 C55B 97.9(7) . . ?
O20 C44 C54A 110.7(8) . . ?
O20 C44 C54B 103.6(7) . . ?
O17 C46 C49 107.0(5) . . ?
O17 C48 C50 102.5(5) . . ?
C46 C49 C50 103.9(5) . . ?
C49 C50 C48 103.7(5) . . ?
C44 C54A C55A 103.4(10) . . ?
C55B C54B C44 109.1(13) . . ?
C39 C55A C54A 100.6(9) . . ?
C54B C55B C39 116.8(14) . . ?
C33 N21 P5 130.3(3) . . ?
C33 N21 P5 129.0(3) . 2_556 ?
P5 N21 P5 97.4(2) . 2_556 ?
C25 N23 P3 130.3(3) . . ?
C25 N23 P3 130.2(3) . 2_667 ?
P3 N23 P3 97.1(2) . 2_667 ?
C48 O17 C46 105.2(4) . . ?
C48 O17 Na14 129.2(3) . . ?
C46 O17 Na14 125.0(3) . . ?
C44 O20 C39 110.9(5) . . ?
C44 O20 Na14 118.9(4) . . ?
C39 O20 Na14 130.2(4) . . ?
O20 Na14 O17 90.38(17) . . ?
O20 Na14 Cl10 132.73(14) . . ?
O17 Na14 Cl10 110.50(13) . . ?
O20 Na14 S8 97.30(14) . . ?
O17 Na14 S8 148.24(12) . . ?
Cl10 Na14 S8 86.54(6) . . ?
O20 Na14 Cl6 93.10(14) . . ?
O17 Na14 Cl6 82.03(11) . . ?
Cl10 Na14 Cl6 130.43(8) . . ?
S8 Na14 Cl6 66.87(6) . . ?
Cl1 Na16 S2 113.06(8) 1_545 2_666 ?
Cl1 Na16 S9 120.31(8) 1_545 2_556 ?
S2 Na16 S9 96.94(7) 2_666 2_556 ?
Cl1 Na16 Cl10 102.16(8) 1_545 . ?
S2 Na16 Cl10 112.39(8) 2_666 . ?
S9 Na16 Cl10 112.46(8) 2_556 . ?
Cl1 Na16 P5 121.08(7) 1_545 2_556 ?
S2 Na16 P5 120.78(7) 2_666 2_556 ?
S9 Na16 P5 35.32(4) 2_556 2_556 ?
Cl10 Na16 P5 78.72(6) . 2_556 ?
Cl1 Na16 P5 112.63(7) 1_545 . ?
S2 Na16 P5 128.88(8) 2_666 . ?
S9 Na16 P5 78.75(6) 2_556 . ?
Cl10 Na16 P5 35.28(4) . . ?
P5 Na16 P5 43.85(5) 2_556 . ?
Cl1 Na16 P4 78.57(6) 1_545 2_666 ?
S2 Na16 P4 35.19(4) 2_666 2_666 ?
S9 Na16 P4 109.91(7) 2_556 2_666 ?
Cl10 Na16 P4 129.30(8) . 2_666 ?
P5 Na16 P4 144.38(7) 2_556 2_666 ?
P5 Na16 P4 160.72(7) . 2_666 ?
Cl1 Na16 P4 35.31(4) 1_545 1_545 ?
S2 Na16 P4 78.43(6) 2_666 1_545 ?
S9 Na16 P4 120.80(7) 2_556 1_545 ?
Cl10 Na16 P4 123.89(7) . 1_545 ?
P5 Na16 P4 144.69(7) 2_556 1_545 ?
P5 Na16 P4 146.80(7) . 1_545 ?
P4 Na16 P4 43.43(5) 2_666 1_545 ?
N23 P3 N23 82.9(2) . 2_667 ?
N23 P3 Cl6 114.49(16) . . ?
N23 P3 Cl6 113.87(16) 2_667 . ?
N23 P3 S8 114.38(16) . . ?
N23 P3 S8 114.31(15) 2_667 . ?
Cl6 P3 S8 113.48(8) . . ?
N23 P3 P3 41.48(14) . 2_667 ?
N23 P3 P3 41.46(14) 2_667 2_667 ?
Cl6 P3 P3 123.14(9) . 2_667 ?
S8 P3 P3 123.38(9) . 2_667 ?
N21 P5 N21 82.6(2) . 2_556 ?
N21 P5 S9 115.00(15) . . ?
N21 P5 S9 113.95(15) 2_556 . ?
N21 P5 Cl10 113.47(15) . . ?
N21 P5 Cl10 114.99(15) 2_556 . ?
S9 P5 Cl10 113.42(8) . . ?
N21 P5 P5 41.41(14) . 2_556 ?
N21 P5 P5 41.19(14) 2_556 2_556 ?
S9 P5 P5 123.46(9) . 2_556 ?
Cl10 P5 P5 123.11(9) . 2_556 ?
N21 P5 Na16 81.25(14) . 2_556 ?
N21 P5 Na16 66.18(14) 2_556 2_556 ?
S9 P5 Na16 56.17(6) . 2_556 ?
Cl10 P5 Na16 165.24(8) . 2_556 ?
P5 P5 Na16 68.26(6) 2_556 2_556 ?
N21 P5 Na16 65.94(14) . . ?
N21 P5 Na16 80.89(14) 2_556 . ?
S9 P5 Na16 165.14(7) . . ?
Cl10 P5 Na16 56.15(6) . . ?
P5 P5 Na16 67.89(6) 2_556 . ?
Na16 P5 Na16 136.15(5) 2_556 . ?
P3 S8 Na13 90.74(7) . 2_666 ?
P3 S8 Na14 90.72(7) . . ?
Na13 S8 Na14 166.33(8) 2_666 . ?
P5 S9 Na16 88.51(7) . 2_556 ?
P3 Cl6 Na13 89.85(7) . 1_556 ?
P3 Cl6 Na14 88.71(7) . . ?
Na13 Cl6 Na14 174.82(8) 1_556 . ?
P5 Cl10 Na16 88.57(7) . . ?
P5 Cl10 Na14 101.20(7) . . ?
Na16 Cl10 Na14 169.95(7) . . ?
O19 C37 C40 106.0(5) . . ?
C51 C40 C37 104.7(5) . . ?
O19 C41 C51 105.9(6) . . ?
C40 C51 C41 104.9(6) . . ?
C41 O19 C37 108.0(5) . . ?
C41 O19 Na15 124.8(4) . . ?
C37 O19 Na15 123.3(3) . . ?
O19 Na15 O18 101.26(16) . 2_666 ?
O19 Na15 Cl1 143.00(13) . 2_666 ?
O18 Na15 Cl1 93.12(13) 2_666 2_666 ?
O19 Na15 S12 88.63(12) . 1_545 ?
O18 Na15 S12 82.30(11) 2_666 1_545 ?
Cl1 Na15 S12 127.29(8) 2_666 1_545 ?
O19 Na15 S2 78.37(12) . 2_666 ?
O18 Na15 S2 94.43(11) 2_666 2_666 ?
Cl1 Na15 S2 66.57(6) 2_666 2_666 ?
S12 Na15 S2 165.75(8) 1_545 2_666 ?
O19 Na15 Cl7 91.10(12) . 1_545 ?
O18 Na15 Cl7 145.95(12) 2_666 1_545 ?
Cl1 Na15 Cl7 95.73(7) 2_666 1_545 ?
S12 Na15 Cl7 66.25(6) 1_545 1_545 ?
S2 Na15 Cl7 119.24(7) 2_666 1_545 ?
O18 C42 C53 107.0(6) . . ?
O18 C52 C56 108.0(6) . . ?
C56 C53 C42 107.7(7) . . ?
C53 C56 C52 104.8(7) . . ?
C52 O18 C42 108.5(5) . . ?
C52 O18 Na15 119.2(4) . 2_666 ?
C42 O18 Na15 127.6(4) . 2_666 ?
N22 C27 C45 108.8(4) . . ?
N22 C27 C35 110.7(4) . . ?
C45 C27 C35 109.6(4) . . ?
N22 C27 C28 107.7(4) . . ?
C45 C27 C28 109.8(4) . . ?
C35 C27 C28 110.1(4) . . ?
C27 N22 P4 130.5(3) . 2_676 ?
C27 N22 P4 130.1(3) . . ?
P4 N22 P4 96.7(2) 2_676 . ?
N22 P4 N22 83.3(2) 2_676 . ?
N22 P4 S2 114.63(15) 2_676 . ?
N22 P4 S2 114.34(15) . . ?
N22 P4 Cl1 113.69(15) 2_676 . ?
N22 P4 Cl1 114.77(15) . . ?
S2 P4 Cl1 113.02(8) . . ?
N22 P4 P4 41.89(14) 2_676 2_676 ?
N22 P4 P4 41.38(14) . 2_676 ?
S2 P4 P4 123.67(9) . 2_676 ?
Cl1 P4 P4 123.30(9) . 2_676 ?
N22 P4 Na16 78.91(14) 2_676 2_666 ?
N22 P4 Na16 68.97(14) . 2_666 ?
S2 P4 Na16 55.78(6) . 2_666 ?
Cl1 P4 Na16 166.85(8) . 2_666 ?
P4 P4 Na16 68.32(6) 2_676 2_666 ?
N22 P4 Na16 68.99(15) 2_676 1_565 ?
N22 P4 Na16 78.67(15) . 1_565 ?
S2 P4 Na16 166.48(7) . 1_565 ?
Cl1 P4 Na16 55.45(6) . 1_565 ?
P4 P4 Na16 68.25(6) 2_676 1_565 ?
Na16 P4 Na16 136.57(5) 2_666 1_565 ?
P4 S2 Na16 89.03(7) . 2_666 ?
P4 S2 Na15 84.77(7) . 2_666 ?
Na16 S2 Na15 150.13(7) 2_666 2_666 ?
P4 Cl1 Na16 89.23(7) . 1_565 ?
P4 Cl1 Na15 90.00(7) . 2_666 ?
Na16 Cl1 Na15 165.30(8) 1_565 2_666 ?
N24 C38 C47 108.2(4) . . ?
N24 C38 C30 111.3(4) . . ?
C47 C38 C30 109.4(4) . . ?
N24 C38 C43 107.9(4) . . ?
C47 C38 C43 110.3(5) . . ?
C30 C38 C43 109.7(5) . . ?
C38 N24 P11 130.4(3) . 2_675 ?
C38 N24 P11 129.4(3) . . ?
P11 N24 P11 97.4(2) 2_675 . ?
S12 Na13 S8 125.91(8) 2_675 2_666 ?
S12 Na13 Cl7 111.08(7) 2_675 . ?
S8 Na13 Cl7 94.09(7) 2_666 . ?
S12 Na13 Cl6 89.19(7) 2_675 1_554 ?
S8 Na13 Cl6 110.69(7) 2_666 1_554 ?
Cl7 Na13 Cl6 129.78(8) . 1_554 ?
N24 P11 N24 82.6(2) 2_675 . ?
N24 P11 Cl7 114.63(15) 2_675 . ?
N24 P11 Cl7 115.14(15) . . ?
N24 P11 S12 113.72(15) 2_675 . ?
N24 P11 S12 113.51(15) . . ?
Cl7 P11 S12 113.71(8) . . ?
N24 P11 P11 41.39(14) 2_675 2_675 ?
N24 P11 P11 41.20(14) . 2_675 ?
Cl7 P11 P11 124.06(9) . 2_675 ?
S12 P11 P11 122.22(9) . 2_675 ?
P11 S12 Na13 90.92(7) . 2_675 ?
P11 S12 Na15 92.96(7) . 1_565 ?
Na13 S12 Na15 174.01(8) 2_675 1_565 ?
P11 Cl7 Na13 89.22(7) . . ?
P11 Cl7 Na15 86.77(7) . 1_565 ?
Na13 Cl7 Na15 164.86(8) . 1_565 ?

# The following lines are used to test the character set of files sent by
# network email or other means. They are not part of the CIF data set
# abcdefghijklmnopqrstuvwxyzABCDEFGHIJKLMNOPQRSTUVWXYZ0123456789
# !@#$%^&*()_+{}:"~<>?|\-=[];'`,./

# END of CIF
_exptl_crystal_recrystallization_method 'Re-crystallisation from solvent: THF'
_chemical_properties_physical    Hygroscopic
