####################################################################### 
# 
# This file contains crystal structure data downloaded from the 
# Cambridge Structural Database (CSD) hosted by the Cambridge 
# Crystallographic Data Centre (CCDC).
# 
# Full information about CCDC data access policies and citation 
# guidelines are available at http://www.ccdc.cam.ac.uk/access/V1 
# 
# Audit and citation data items may have been added by the CCDC. 
# Please retain this information to preserve the provenance of 
# this file and to allow appropriate attribution of the data. 
# 
#######################################################################

data_1
_audit_block_doi                 10.5517/cc10wj2h
_database_code_depnum_ccdc_archive 'CCDC 949966'
_audit_update_record             
;
2014-10-02 deposited with the CCDC.	2026-01-30 downloaded from the CCDC.
;

_audit_creation_method           SHELXL-97
_chemical_name_systematic        ?
_chemical_name_common            ?
_chemical_melting_point          ?
_chemical_formula_moiety         'C20 H13 O5 P Zn'
_chemical_formula_sum            'C20 H13 O5 P Zn'
_chemical_formula_weight         429.64

loop_
_atom_type_symbol
_atom_type_description
_atom_type_scat_dispersion_real
_atom_type_scat_dispersion_imag
_atom_type_scat_source
C C 0.0033 0.0016 'International Tables Vol C Tables 4.2.6.8 and 6.1.1.4'
H H 0.0000 0.0000 'International Tables Vol C Tables 4.2.6.8 and 6.1.1.4'
O O 0.0106 0.0060 'International Tables Vol C Tables 4.2.6.8 and 6.1.1.4'
P P 0.1023 0.0942 'International Tables Vol C Tables 4.2.6.8 and 6.1.1.4'
Zn Zn 0.2839 1.4301 'International Tables Vol C Tables 4.2.6.8 and 6.1.1.4'

_symmetry_cell_setting           monoclinic
_symmetry_space_group_name_Hall  '-P 2ybc'
_symmetry_space_group_name_H-M   P2(1)/c

loop_
_symmetry_equiv_pos_as_xyz
'x, y, z'
'-x, y+1/2, -z+1/2'
'-x, -y, -z'
'x, -y-1/2, z-1/2'

_cell_length_a                   11.0966(10)
_cell_length_b                   14.5651(14)
_cell_length_c                   14.7311(15)
_cell_angle_alpha                90.00
_cell_angle_beta                 130.022(6)
_cell_angle_gamma                90.00
_cell_volume                     1823.3(3)
_cell_formula_units_Z            4
_cell_measurement_temperature    296(2)
_cell_measurement_reflns_used    6378
_cell_measurement_theta_min      3.0939
_cell_measurement_theta_max      29.1294

_exptl_crystal_description       block
_exptl_crystal_colour            colourless
_exptl_crystal_size_max          0.21
_exptl_crystal_size_mid          0.20
_exptl_crystal_size_min          0.19
_exptl_crystal_density_meas      ?
_exptl_crystal_density_diffrn    1.565
_exptl_crystal_density_method    'not measured'
_exptl_crystal_F_000             872
_exptl_absorpt_coefficient_mu    1.463
_exptl_absorpt_correction_type   multi-scan
_exptl_absorpt_correction_T_min  0.7486
_exptl_absorpt_correction_T_max  0.7684
_exptl_absorpt_process_details   'SADABS (Bruker, 2005)'

_exptl_special_details           ?

_diffrn_ambient_temperature      296(2)
_diffrn_radiation_wavelength     0.71073
_diffrn_radiation_type           MoK\a
_diffrn_radiation_source         'fine-focus sealed tube'
_diffrn_radiation_monochromator  graphite
_diffrn_measurement_device_type  'Bruker Smart APEXII CCD area detector'
_diffrn_measurement_method       '\w scans'
_diffrn_detector_area_resol_mean ?
_diffrn_standards_number         0
_diffrn_standards_interval_count .
_diffrn_standards_interval_time  .
_diffrn_standards_decay_%        ?
_diffrn_reflns_number            10445
_diffrn_reflns_av_R_equivalents  0.0200
_diffrn_reflns_av_sigmaI/netI    0.0207
_diffrn_reflns_limit_h_min       -13
_diffrn_reflns_limit_h_max       13
_diffrn_reflns_limit_k_min       -16
_diffrn_reflns_limit_k_max       17
_diffrn_reflns_limit_l_min       -17
_diffrn_reflns_limit_l_max       17
_diffrn_reflns_theta_min         3.10
_diffrn_reflns_theta_max         25.00
_reflns_number_total             3202
_reflns_number_gt                2769
_reflns_threshold_expression     >2sigma(I)

_computing_data_collection       'APEX2 (Bruker, 2005)'
_computing_cell_refinement       'SAINT (Bruker, 2005)'
_computing_data_reduction        SAINT
_computing_structure_solution    'SHELXTL (Sheldrick, 2008)'
_computing_structure_refinement  SHELXTL
_computing_molecular_graphics    'DIAMOND (Brandendurg, 2010)'
_computing_publication_material  SHELXTL

_refine_special_details          
;
 Refinement of F^2^ against ALL reflections.  The weighted R-factor wR and
 goodness of fit S are based on F^2^, conventional R-factors R are based
 on F, with F set to zero for negative F^2^. The threshold expression of
 F^2^ > 2sigma(F^2^) is used only for calculating R-factors(gt) etc. and is
 not relevant to the choice of reflections for refinement.  R-factors based
 on F^2^ are statistically about twice as large as those based on F, and R-
 factors based on ALL data will be even larger.
;

_refine_ls_structure_factor_coef Fsqd
_refine_ls_matrix_type           full
_refine_ls_weighting_scheme      calc
_refine_ls_weighting_details     
'calc w=1/[\s^2^(Fo^2^)+(0.0440P)^2^+0.5272P] where P=(Fo^2^+2Fc^2^)/3'
_atom_sites_solution_primary     direct
_atom_sites_solution_secondary   difmap
_atom_sites_solution_hydrogens   geom
_refine_ls_hydrogen_treatment    constr
_refine_ls_extinction_method     none
_refine_ls_extinction_coef       ?
_refine_ls_number_reflns         3202
_refine_ls_number_parameters     244
_refine_ls_number_restraints     0
_refine_ls_R_factor_all          0.0339
_refine_ls_R_factor_gt           0.0270
_refine_ls_wR_factor_ref         0.0768
_refine_ls_wR_factor_gt          0.0739
_refine_ls_goodness_of_fit_ref   1.054
_refine_ls_restrained_S_all      1.054
_refine_ls_shift/su_max          0.001
_refine_ls_shift/su_mean         0.000

loop_
_atom_site_label
_atom_site_type_symbol
_atom_site_fract_x
_atom_site_fract_y
_atom_site_fract_z
_atom_site_U_iso_or_equiv
_atom_site_adp_type
_atom_site_occupancy
_atom_site_symmetry_multiplicity
_atom_site_calc_flag
_atom_site_refinement_flags
_atom_site_disorder_assembly
_atom_site_disorder_group
Zn1 Zn 0.68795(3) 0.494646(15) 0.17718(2) 0.02942(10) Uani 1 1 d . . .
O1 O 0.65979(18) 0.56064(11) 0.05031(14) 0.0432(4) Uani 1 1 d . . .
O2 O 0.45740(17) 0.60579(11) -0.13143(14) 0.0420(4) Uani 1 1 d . . .
O3 O 0.5857(3) 0.85221(18) -0.29685(19) 0.0906(8) Uani 1 1 d . . .
O4 O 0.7526(2) 0.95813(13) -0.17456(17) 0.0588(5) Uani 1 1 d . . .
O5 O 1.11888(19) 0.92828(11) 0.26228(15) 0.0451(4) Uani 1 1 d . . .
C1 C 0.5898(2) 0.61749(14) -0.03176(19) 0.0298(5) Uani 1 1 d . . .
C2 C 0.6794(3) 0.88453(17) -0.1970(2) 0.0452(6) Uani 1 1 d . . .
C3 C 0.6715(2) 0.70610(14) -0.01363(18) 0.0304(4) Uani 1 1 d . . .
C4 C 0.6334(3) 0.75489(15) -0.11006(19) 0.0344(5) Uani 1 1 d . . .
H4 H 0.5543 0.7335 -0.1866 0.041 Uiso 1 1 calc R . .
C5 C 0.7131(3) 0.83576(15) -0.0927(2) 0.0351(5) Uani 1 1 d . . .
C6 C 0.8265(3) 0.86909(15) 0.0214(2) 0.0370(5) Uani 1 1 d . . .
H6 H 0.8781 0.9238 0.0332 0.044 Uiso 1 1 calc R . .
C7 C 0.8635(2) 0.82143(15) 0.11843(19) 0.0342(5) Uani 1 1 d . . .
C8 C 0.7886(2) 0.73854(15) 0.10085(19) 0.0334(5) Uani 1 1 d . . .
H8 H 0.8168 0.7048 0.1656 0.040 Uiso 1 1 calc R . .
C9 C 0.9034(3) 0.93917(17) 0.2939(2) 0.0414(5) Uani 1 1 d . . .
C10 C 0.9648(3) 1.0249(2) 0.3451(3) 0.0589(7) Uani 1 1 d . . .
H10 H 1.0589 1.0441 0.3647 0.071 Uiso 1 1 calc R . .
C11 C 0.8863(4) 1.0816(2) 0.3669(3) 0.0770(9) Uani 1 1 d . . .
H11 H 0.9279 1.1390 0.4010 0.092 Uiso 1 1 calc R . .
C12 C 0.7466(4) 1.0540(2) 0.3385(3) 0.0732(9) Uani 1 1 d . . .
H12 H 0.6942 1.0925 0.3534 0.088 Uiso 1 1 calc R . .
C13 C 0.6855(4) 0.9692(3) 0.2880(3) 0.0687(9) Uani 1 1 d . . .
H13 H 0.5921 0.9501 0.2696 0.082 Uiso 1 1 calc R . .
C14 C 0.7614(3) 0.9123(2) 0.2644(3) 0.0568(7) Uani 1 1 d . . .
H14 H 0.7178 0.8557 0.2286 0.068 Uiso 1 1 calc R . .
C15 C 1.1078(3) 0.77709(16) 0.3667(2) 0.0431(6) Uani 1 1 d . . .
C16 C 1.0597(4) 0.7385(2) 0.4243(3) 0.0651(8) Uani 1 1 d . . .
H16 H 0.9724 0.7623 0.4120 0.078 Uiso 1 1 calc R . .
C17 C 1.1396(4) 0.6652(3) 0.4997(3) 0.0849(11) Uani 1 1 d . . .
H17 H 1.1066 0.6401 0.5386 0.102 Uiso 1 1 calc R . .
C18 C 1.2672(4) 0.6290(3) 0.5179(4) 0.0937(13) Uani 1 1 d . . .
H18 H 1.3205 0.5794 0.5689 0.112 Uiso 1 1 calc R . .
C19 C 1.3170(4) 0.6654(3) 0.4614(4) 0.1028(14) Uani 1 1 d . . .
H19 H 1.4040 0.6408 0.4741 0.123 Uiso 1 1 calc R . .
C20 C 1.2365(4) 0.7398(2) 0.3847(3) 0.0754(9) Uani 1 1 d . . .
H20 H 1.2694 0.7643 0.3455 0.091 Uiso 1 1 calc R . .
P1 P 1.00852(7) 0.87076(4) 0.26354(5) 0.03567(16) Uani 1 1 d . . .

loop_
_atom_site_aniso_label
_atom_site_aniso_U_11
_atom_site_aniso_U_22
_atom_site_aniso_U_33
_atom_site_aniso_U_23
_atom_site_aniso_U_13
_atom_site_aniso_U_12
Zn1 0.02917(16) 0.02933(16) 0.02444(16) 0.00097(10) 0.01480(13) 0.00071(9)
O1 0.0464(9) 0.0395(9) 0.0416(9) 0.0131(8) 0.0273(8) 0.0004(8)
O2 0.0348(9) 0.0419(9) 0.0357(9) 0.0005(7) 0.0166(8) -0.0096(7)
O3 0.1108(19) 0.1056(19) 0.0424(13) 0.0090(12) 0.0434(13) -0.0301(15)
O4 0.0802(13) 0.0479(11) 0.0553(12) 0.0150(9) 0.0466(11) -0.0060(10)
O5 0.0413(9) 0.0428(9) 0.0522(10) -0.0053(8) 0.0306(8) -0.0134(7)
C1 0.0319(11) 0.0309(11) 0.0330(12) 0.0006(10) 0.0237(10) 0.0007(9)
C2 0.0489(14) 0.0469(15) 0.0479(16) 0.0167(12) 0.0348(13) 0.0089(12)
C3 0.0317(11) 0.0297(11) 0.0310(11) 0.0015(9) 0.0207(9) -0.0003(9)
C4 0.0361(11) 0.0356(12) 0.0307(11) 0.0031(9) 0.0211(10) 0.0003(9)
C5 0.0403(12) 0.0330(12) 0.0369(12) 0.0080(10) 0.0270(11) 0.0045(10)
C6 0.0403(12) 0.0293(11) 0.0446(14) 0.0037(10) 0.0288(11) -0.0034(10)
C7 0.0353(11) 0.0336(11) 0.0343(12) -0.0005(10) 0.0226(10) -0.0044(9)
C8 0.0359(11) 0.0326(11) 0.0303(11) 0.0050(9) 0.0207(10) -0.0013(9)
C9 0.0399(13) 0.0447(14) 0.0390(13) -0.0015(11) 0.0251(11) -0.0043(11)
C10 0.0520(16) 0.0552(16) 0.074(2) -0.0138(15) 0.0426(16) -0.0090(14)
C11 0.078(2) 0.063(2) 0.099(3) -0.0221(19) 0.060(2) -0.0034(17)
C12 0.068(2) 0.084(2) 0.081(2) -0.002(2) 0.0536(19) 0.0156(19)
C13 0.0523(17) 0.095(2) 0.069(2) -0.0008(19) 0.0439(17) 0.0008(17)
C14 0.0509(15) 0.0654(18) 0.0619(18) -0.0083(15) 0.0398(15) -0.0112(14)
C15 0.0368(13) 0.0402(13) 0.0373(13) -0.0022(11) 0.0170(11) -0.0105(10)
C16 0.0667(18) 0.073(2) 0.0578(18) 0.0177(16) 0.0410(16) 0.0029(16)
C17 0.081(2) 0.090(3) 0.074(2) 0.035(2) 0.046(2) 0.002(2)
C18 0.069(2) 0.072(2) 0.091(3) 0.039(2) 0.029(2) -0.0037(18)
C19 0.066(2) 0.079(2) 0.143(4) 0.046(3) 0.058(3) 0.0228(19)
C20 0.0669(19) 0.0616(19) 0.100(3) 0.0316(18) 0.0548(19) 0.0117(16)
P1 0.0347(3) 0.0346(3) 0.0362(3) -0.0029(3) 0.0221(3) -0.0088(2)

_geom_special_details            
;
 All esds (except the esd in the dihedral angle between two l.s. planes)
 are estimated using the full covariance matrix.  The cell esds are taken
 into account individually in the estimation of esds in distances, angles
 and torsion angles; correlations between esds in cell parameters are only
 used when they are defined by crystal symmetry.  An approximate (isotropic)
 treatment of cell esds is used for estimating esds involving l.s. planes.
;

loop_
_geom_bond_atom_site_label_1
_geom_bond_atom_site_label_2
_geom_bond_distance
_geom_bond_site_symmetry_2
_geom_bond_publ_flag
Zn1 O4 1.9346(17) 4_576 ?
Zn1 O1 1.9401(15) . ?
Zn1 O2 1.9487(15) 3_665 ?
Zn1 O5 1.9662(15) 2_745 ?
Zn1 C2 2.601(2) 4_576 ?
O1 C1 1.242(2) . ?
O2 C1 1.253(3) . ?
O2 Zn1 1.9487(15) 3_665 ?
O3 C2 1.224(3) . ?
O4 C2 1.254(3) . ?
O4 Zn1 1.9346(17) 4_575 ?
O5 P1 1.4937(15) . ?
O5 Zn1 1.9662(15) 2_755 ?
C1 C3 1.499(3) . ?
C2 C5 1.506(3) . ?
C2 Zn1 2.601(2) 4_575 ?
C3 C4 1.389(3) . ?
C3 C8 1.392(3) . ?
C4 C5 1.394(3) . ?
C4 H4 0.9300 . ?
C5 C6 1.388(3) . ?
C6 C7 1.392(3) . ?
C6 H6 0.9300 . ?
C7 C8 1.392(3) . ?
C7 P1 1.803(2) . ?
C8 H8 0.9300 . ?
C9 C10 1.390(4) . ?
C9 C14 1.394(3) . ?
C9 P1 1.796(2) . ?
C10 C11 1.380(4) . ?
C10 H10 0.9300 . ?
C11 C12 1.380(5) . ?
C11 H11 0.9300 . ?
C12 C13 1.375(5) . ?
C12 H12 0.9300 . ?
C13 C14 1.375(4) . ?
C13 H13 0.9300 . ?
C14 H14 0.9300 . ?
C15 C16 1.380(3) . ?
C15 C20 1.385(4) . ?
C15 P1 1.798(2) . ?
C16 C17 1.376(4) . ?
C16 H16 0.9300 . ?
C17 C18 1.366(5) . ?
C17 H17 0.9300 . ?
C18 C19 1.366(5) . ?
C18 H18 0.9300 . ?
C19 C20 1.396(5) . ?
C19 H19 0.9300 . ?
C20 H20 0.9300 . ?

loop_
_geom_angle_atom_site_label_1
_geom_angle_atom_site_label_2
_geom_angle_atom_site_label_3
_geom_angle
_geom_angle_site_symmetry_1
_geom_angle_site_symmetry_3
_geom_angle_publ_flag
O4 Zn1 O1 128.65(8) 4_576 . ?
O4 Zn1 O2 106.32(8) 4_576 3_665 ?
O1 Zn1 O2 117.00(7) . 3_665 ?
O4 Zn1 O5 99.10(8) 4_576 2_745 ?
O1 Zn1 O5 97.69(7) . 2_745 ?
O2 Zn1 O5 101.90(7) 3_665 2_745 ?
O4 Zn1 C2 27.40(8) 4_576 4_576 ?
O1 Zn1 C2 107.10(8) . 4_576 ?
O2 Zn1 C2 110.67(7) 3_665 4_576 ?
O5 Zn1 C2 122.56(8) 2_745 4_576 ?
C1 O1 Zn1 151.72(15) . . ?
C1 O2 Zn1 126.42(14) . 3_665 ?
C2 O4 Zn1 107.39(17) . 4_575 ?
P1 O5 Zn1 158.99(11) . 2_755 ?
O1 C1 O2 125.31(19) . . ?
O1 C1 C3 118.21(19) . . ?
O2 C1 C3 116.43(19) . . ?
O3 C2 O4 123.5(2) . . ?
O3 C2 C5 120.4(2) . . ?
O4 C2 C5 116.1(2) . . ?
O3 C2 Zn1 78.24(15) . 4_575 ?
O4 C2 Zn1 45.21(11) . 4_575 ?
C5 C2 Zn1 161.33(19) . 4_575 ?
C4 C3 C8 119.92(19) . . ?
C4 C3 C1 120.44(19) . . ?
C8 C3 C1 119.63(18) . . ?
C3 C4 C5 120.3(2) . . ?
C3 C4 H4 119.8 . . ?
C5 C4 H4 119.8 . . ?
C6 C5 C4 119.44(19) . . ?
C6 C5 C2 120.6(2) . . ?
C4 C5 C2 120.0(2) . . ?
C5 C6 C7 120.6(2) . . ?
C5 C6 H6 119.7 . . ?
C7 C6 H6 119.7 . . ?
C6 C7 C8 119.6(2) . . ?
C6 C7 P1 117.88(16) . . ?
C8 C7 P1 122.48(17) . . ?
C7 C8 C3 120.0(2) . . ?
C7 C8 H8 120.0 . . ?
C3 C8 H8 120.0 . . ?
C10 C9 C14 118.8(2) . . ?
C10 C9 P1 117.63(18) . . ?
C14 C9 P1 123.5(2) . . ?
C11 C10 C9 120.1(3) . . ?
C11 C10 H10 119.9 . . ?
C9 C10 H10 119.9 . . ?
C10 C11 C12 120.6(3) . . ?
C10 C11 H11 119.7 . . ?
C12 C11 H11 119.7 . . ?
C13 C12 C11 119.5(3) . . ?
C13 C12 H12 120.2 . . ?
C11 C12 H12 120.2 . . ?
C12 C13 C14 120.6(3) . . ?
C12 C13 H13 119.7 . . ?
C14 C13 H13 119.7 . . ?
C13 C14 C9 120.3(3) . . ?
C13 C14 H14 119.8 . . ?
C9 C14 H14 119.8 . . ?
C16 C15 C20 118.8(3) . . ?
C16 C15 P1 124.0(2) . . ?
C20 C15 P1 117.12(19) . . ?
C17 C16 C15 120.6(3) . . ?
C17 C16 H16 119.7 . . ?
C15 C16 H16 119.7 . . ?
C18 C17 C16 120.4(3) . . ?
C18 C17 H17 119.8 . . ?
C16 C17 H17 119.8 . . ?
C19 C18 C17 120.3(3) . . ?
C19 C18 H18 119.9 . . ?
C17 C18 H18 119.9 . . ?
C18 C19 C20 119.7(4) . . ?
C18 C19 H19 120.2 . . ?
C20 C19 H19 120.2 . . ?
C15 C20 C19 120.2(3) . . ?
C15 C20 H20 119.9 . . ?
C19 C20 H20 119.9 . . ?
O5 P1 C9 111.16(10) . . ?
O5 P1 C15 111.99(10) . . ?
C9 P1 C15 110.71(11) . . ?
O5 P1 C7 108.81(10) . . ?
C9 P1 C7 106.81(11) . . ?
C15 P1 C7 107.12(11) . . ?

loop_
_geom_torsion_atom_site_label_1
_geom_torsion_atom_site_label_2
_geom_torsion_atom_site_label_3
_geom_torsion_atom_site_label_4
_geom_torsion
_geom_torsion_site_symmetry_1
_geom_torsion_site_symmetry_2
_geom_torsion_site_symmetry_3
_geom_torsion_site_symmetry_4
_geom_torsion_publ_flag
O4 Zn1 O1 C1 -67.4(3) 4_576 . . . ?
O2 Zn1 O1 C1 76.8(3) 3_665 . . . ?
O5 Zn1 O1 C1 -175.6(3) 2_745 . . . ?
C2 Zn1 O1 C1 -48.0(3) 4_576 . . . ?
Zn1 O1 C1 O2 -74.0(4) . . . . ?
Zn1 O1 C1 C3 108.8(3) . . . . ?
Zn1 O2 C1 O1 10.0(3) 3_665 . . . ?
Zn1 O2 C1 C3 -172.74(13) 3_665 . . . ?
Zn1 O4 C2 O3 0.1(3) 4_575 . . . ?
Zn1 O4 C2 C5 179.84(15) 4_575 . . . ?
O1 C1 C3 C4 154.51(19) . . . . ?
O2 C1 C3 C4 -22.9(3) . . . . ?
O1 C1 C3 C8 -24.2(3) . . . . ?
O2 C1 C3 C8 158.39(19) . . . . ?
C8 C3 C4 C5 0.7(3) . . . . ?
C1 C3 C4 C5 -177.96(18) . . . . ?
C3 C4 C5 C6 -2.6(3) . . . . ?
C3 C4 C5 C2 175.51(19) . . . . ?
O3 C2 C5 C6 175.9(2) . . . . ?
O4 C2 C5 C6 -3.9(3) . . . . ?
Zn1 C2 C5 C6 -3.5(6) 4_575 . . . ?
O3 C2 C5 C4 -2.2(4) . . . . ?
O4 C2 C5 C4 178.1(2) . . . . ?
Zn1 C2 C5 C4 178.4(4) 4_575 . . . ?
C4 C5 C6 C7 1.5(3) . . . . ?
C2 C5 C6 C7 -176.6(2) . . . . ?
C5 C6 C7 C8 1.5(3) . . . . ?
C5 C6 C7 P1 -178.44(16) . . . . ?
C6 C7 C8 C3 -3.3(3) . . . . ?
P1 C7 C8 C3 176.56(16) . . . . ?
C4 C3 C8 C7 2.2(3) . . . . ?
C1 C3 C8 C7 -179.07(18) . . . . ?
C14 C9 C10 C11 0.6(5) . . . . ?
P1 C9 C10 C11 177.9(3) . . . . ?
C9 C10 C11 C12 0.1(5) . . . . ?
C10 C11 C12 C13 0.0(6) . . . . ?
C11 C12 C13 C14 -0.8(5) . . . . ?
C12 C13 C14 C9 1.5(5) . . . . ?
C10 C9 C14 C13 -1.3(4) . . . . ?
P1 C9 C14 C13 -178.5(2) . . . . ?
C20 C15 C16 C17 1.0(5) . . . . ?
P1 C15 C16 C17 178.2(2) . . . . ?
C15 C16 C17 C18 -0.6(5) . . . . ?
C16 C17 C18 C19 0.1(6) . . . . ?
C17 C18 C19 C20 -0.2(7) . . . . ?
C16 C15 C20 C19 -1.1(5) . . . . ?
P1 C15 C20 C19 -178.5(3) . . . . ?
C18 C19 C20 C15 0.7(6) . . . . ?
Zn1 O5 P1 C9 84.9(3) 2_755 . . . ?
Zn1 O5 P1 C15 -39.5(3) 2_755 . . . ?
Zn1 O5 P1 C7 -157.7(3) 2_755 . . . ?
C10 C9 P1 O5 -18.4(3) . . . . ?
C14 C9 P1 O5 158.9(2) . . . . ?
C10 C9 P1 C15 106.8(2) . . . . ?
C14 C9 P1 C15 -76.0(2) . . . . ?
C10 C9 P1 C7 -136.9(2) . . . . ?
C14 C9 P1 C7 40.3(2) . . . . ?
C16 C15 P1 O5 150.9(2) . . . . ?
C20 C15 P1 O5 -31.9(3) . . . . ?
C16 C15 P1 C9 26.2(3) . . . . ?
C20 C15 P1 C9 -156.6(2) . . . . ?
C16 C15 P1 C7 -89.9(2) . . . . ?
C20 C15 P1 C7 87.3(2) . . . . ?
C6 C7 P1 O5 -27.8(2) . . . . ?
C8 C7 P1 O5 152.29(18) . . . . ?
C6 C7 P1 C9 92.26(19) . . . . ?
C8 C7 P1 C9 -87.6(2) . . . . ?
C6 C7 P1 C15 -149.08(18) . . . . ?
C8 C7 P1 C15 31.0(2) . . . . ?

_diffrn_measured_fraction_theta_max 0.998
_diffrn_reflns_theta_full        25.00
_diffrn_measured_fraction_theta_full 0.998
_refine_diff_density_max         0.330
_refine_diff_density_min         -0.234
_refine_diff_density_rms         0.049

